@RELATION mesh_pubtator

@ATTRIBUTE MESH_C000592401 {0,1}
@ATTRIBUTE MESH_C000596027 {0,1}
@ATTRIBUTE MESH_C000606551 {0,1}
@ATTRIBUTE MESH_C000656865 {0,1}
@ATTRIBUTE MESH_C000657245 {0,1}
@ATTRIBUTE MESH_C003043 {0,1}
@ATTRIBUTE MESH_C007293 {0,1}
@ATTRIBUTE MESH_C016679 {0,1}
@ATTRIBUTE MESH_C023676 {0,1}
@ATTRIBUTE MESH_C024865 {0,1}
@ATTRIBUTE MESH_C032159 {0,1}
@ATTRIBUTE MESH_C034532 {0,1}
@ATTRIBUTE MESH_C086979 {0,1}
@ATTRIBUTE MESH_C411644 {0,1}
@ATTRIBUTE MESH_C462182 {0,1}
@ATTRIBUTE MESH_C502936 {0,1}
@ATTRIBUTE MESH_C535395 {0,1}
@ATTRIBUTE MESH_C535733 {0,1}
@ATTRIBUTE MESH_C535742 {0,1}
@ATTRIBUTE MESH_C535882 {0,1}
@ATTRIBUTE MESH_C536227 {0,1}
@ATTRIBUTE MESH_C536395 {0,1}
@ATTRIBUTE MESH_C536439 {0,1}
@ATTRIBUTE MESH_C536767 {0,1}
@ATTRIBUTE MESH_C536920 {0,1}
@ATTRIBUTE MESH_C537017 {0,1}
@ATTRIBUTE MESH_C537418 {0,1}
@ATTRIBUTE MESH_C537501 {0,1}
@ATTRIBUTE MESH_C537866 {0,1}
@ATTRIBUTE MESH_C538137 {0,1}
@ATTRIBUTE MESH_C538614 {0,1}
@ATTRIBUTE MESH_C540383 {0,1}
@ATTRIBUTE MESH_C558899 {0,1}
@ATTRIBUTE MESH_C563010 {0,1}
@ATTRIBUTE MESH_C569686 {0,1}
@ATTRIBUTE MESH_D000013 {0,1}
@ATTRIBUTE MESH_D000014 {0,1}
@ATTRIBUTE MESH_D000067073 {0,1}
@ATTRIBUTE MESH_D000067390 {0,1}
@ATTRIBUTE MESH_D000068376 {0,1}
@ATTRIBUTE MESH_D000069283 {0,1}
@ATTRIBUTE MESH_D000069285 {0,1}
@ATTRIBUTE MESH_D000070642 {0,1}
@ATTRIBUTE MESH_D000071079 {0,1}
@ATTRIBUTE MESH_D000073893 {0,1}
@ATTRIBUTE MESH_D000077266 {0,1}
@ATTRIBUTE MESH_D000077559 {0,1}
@ATTRIBUTE MESH_D000077731 {0,1}
@ATTRIBUTE MESH_D000079225 {0,1}
@ATTRIBUTE MESH_D000081029 {0,1}
@ATTRIBUTE MESH_D000082 {0,1}
@ATTRIBUTE MESH_D000096 {0,1}
@ATTRIBUTE MESH_D000138 {0,1}
@ATTRIBUTE MESH_D000163 {0,1}
@ATTRIBUTE MESH_D000208 {0,1}
@ATTRIBUTE MESH_D000225 {0,1}
@ATTRIBUTE MESH_D000230 {0,1}
@ATTRIBUTE MESH_D000241 {0,1}
@ATTRIBUTE MESH_D000255 {0,1}
@ATTRIBUTE MESH_D000275 {0,1}
@ATTRIBUTE MESH_D000309 {0,1}
@ATTRIBUTE MESH_D000336 {0,1}
@ATTRIBUTE MESH_D000362 {0,1}
@ATTRIBUTE MESH_D000370 {0,1}
@ATTRIBUTE MESH_D000402 {0,1}
@ATTRIBUTE MESH_D000409 {0,1}
@ATTRIBUTE MESH_D000431 {0,1}
@ATTRIBUTE MESH_D000432 {0,1}
@ATTRIBUTE MESH_D000437 {0,1}
@ATTRIBUTE MESH_D000438 {0,1}
@ATTRIBUTE MESH_D000450 {0,1}
@ATTRIBUTE MESH_D000535 {0,1}
@ATTRIBUTE MESH_D000544 {0,1}
@ATTRIBUTE MESH_D000577 {0,1}
@ATTRIBUTE MESH_D000588 {0,1}
@ATTRIBUTE MESH_D000740 {0,1}
@ATTRIBUTE MESH_D000783 {0,1}
@ATTRIBUTE MESH_D000787 {0,1}
@ATTRIBUTE MESH_D000806 {0,1}
@ATTRIBUTE MESH_D000853 {0,1}
@ATTRIBUTE MESH_D000855 {0,1}
@ATTRIBUTE MESH_D000857 {0,1}
@ATTRIBUTE MESH_D000860 {0,1}
@ATTRIBUTE MESH_D000900 {0,1}
@ATTRIBUTE MESH_D000998 {0,1}
@ATTRIBUTE MESH_D001007 {0,1}
@ATTRIBUTE MESH_D001049 {0,1}
@ATTRIBUTE MESH_D001064 {0,1}
@ATTRIBUTE MESH_D001068 {0,1}
@ATTRIBUTE MESH_D001102 {0,1}
@ATTRIBUTE MESH_D001120 {0,1}
@ATTRIBUTE MESH_D001145 {0,1}
@ATTRIBUTE MESH_D001168 {0,1}
@ATTRIBUTE MESH_D001171 {0,1}
@ATTRIBUTE MESH_D001172 {0,1}
@ATTRIBUTE MESH_D001205 {0,1}
@ATTRIBUTE MESH_D001224 {0,1}
@ATTRIBUTE MESH_D001241 {0,1}
@ATTRIBUTE MESH_D001247 {0,1}
@ATTRIBUTE MESH_D001249 {0,1}
@ATTRIBUTE MESH_D001259 {0,1}
@ATTRIBUTE MESH_D001281 {0,1}
@ATTRIBUTE MESH_D001289 {0,1}
@ATTRIBUTE MESH_D001321 {0,1}
@ATTRIBUTE MESH_D001327 {0,1}
@ATTRIBUTE MESH_D001379 {0,1}
@ATTRIBUTE MESH_D001416 {0,1}
@ATTRIBUTE MESH_D001424 {0,1}
@ATTRIBUTE MESH_D001464 {0,1}
@ATTRIBUTE MESH_D001480 {0,1}
@ATTRIBUTE MESH_D001523 {0,1}
@ATTRIBUTE MESH_D001663 {0,1}
@ATTRIBUTE MESH_D001710 {0,1}
@ATTRIBUTE MESH_D001714 {0,1}
@ATTRIBUTE MESH_D001749 {0,1}
@ATTRIBUTE MESH_D001766 {0,1}
@ATTRIBUTE MESH_D001778 {0,1}
@ATTRIBUTE MESH_D001855 {0,1}
@ATTRIBUTE MESH_D001919 {0,1}
@ATTRIBUTE MESH_D001927 {0,1}
@ATTRIBUTE MESH_D001929 {0,1}
@ATTRIBUTE MESH_D001930 {0,1}
@ATTRIBUTE MESH_D001932 {0,1}
@ATTRIBUTE MESH_D001943 {0,1}
@ATTRIBUTE MESH_D001991 {0,1}
@ATTRIBUTE MESH_D002104 {0,1}
@ATTRIBUTE MESH_D002118 {0,1}
@ATTRIBUTE MESH_D002241 {0,1}
@ATTRIBUTE MESH_D002244 {0,1}
@ATTRIBUTE MESH_D002245 {0,1}
@ATTRIBUTE MESH_D002248 {0,1}
@ATTRIBUTE MESH_D002277 {0,1}
@ATTRIBUTE MESH_D002280 {0,1}
@ATTRIBUTE MESH_D002289 {0,1}
@ATTRIBUTE MESH_D002294 {0,1}
@ATTRIBUTE MESH_D002303 {0,1}
@ATTRIBUTE MESH_D002311 {0,1}
@ATTRIBUTE MESH_D002318 {0,1}
@ATTRIBUTE MESH_D002386 {0,1}
@ATTRIBUTE MESH_D002395 {0,1}
@ATTRIBUTE MESH_D002443 {0,1}
@ATTRIBUTE MESH_D002493 {0,1}
@ATTRIBUTE MESH_D002494 {0,1}
@ATTRIBUTE MESH_D002543 {0,1}
@ATTRIBUTE MESH_D002544 {0,1}
@ATTRIBUTE MESH_D002545 {0,1}
@ATTRIBUTE MESH_D002561 {0,1}
@ATTRIBUTE MESH_D002586 {0,1}
@ATTRIBUTE MESH_D002637 {0,1}
@ATTRIBUTE MESH_D002710 {0,1}
@ATTRIBUTE MESH_D002713 {0,1}
@ATTRIBUTE MESH_D002738 {0,1}
@ATTRIBUTE MESH_D002784 {0,1}
@ATTRIBUTE MESH_D002908 {0,1}
@ATTRIBUTE MESH_D002945 {0,1}
@ATTRIBUTE MESH_D003072 {0,1}
@ATTRIBUTE MESH_D003078 {0,1}
@ATTRIBUTE MESH_D003092 {0,1}
@ATTRIBUTE MESH_D003110 {0,1}
@ATTRIBUTE MESH_D003128 {0,1}
@ATTRIBUTE MESH_D003141 {0,1}
@ATTRIBUTE MESH_D003231 {0,1}
@ATTRIBUTE MESH_D003244 {0,1}
@ATTRIBUTE MESH_D003248 {0,1}
@ATTRIBUTE MESH_D003300 {0,1}
@ATTRIBUTE MESH_D003324 {0,1}
@ATTRIBUTE MESH_D003371 {0,1}
@ATTRIBUTE MESH_D003401 {0,1}
@ATTRIBUTE MESH_D003404 {0,1}
@ATTRIBUTE MESH_D003424 {0,1}
@ATTRIBUTE MESH_D003428 {0,1}
@ATTRIBUTE MESH_D003520 {0,1}
@ATTRIBUTE MESH_D003545 {0,1}
@ATTRIBUTE MESH_D003550 {0,1}
@ATTRIBUTE MESH_D003596 {0,1}
@ATTRIBUTE MESH_D003643 {0,1}
@ATTRIBUTE MESH_D003645 {0,1}
@ATTRIBUTE MESH_D003680 {0,1}
@ATTRIBUTE MESH_D003681 {0,1}
@ATTRIBUTE MESH_D003693 {0,1}
@ATTRIBUTE MESH_D003704 {0,1}
@ATTRIBUTE MESH_D003711 {0,1}
@ATTRIBUTE MESH_D003903 {0,1}
@ATTRIBUTE MESH_D003907 {0,1}
@ATTRIBUTE MESH_D003920 {0,1}
@ATTRIBUTE MESH_D003922 {0,1}
@ATTRIBUTE MESH_D003924 {0,1}
@ATTRIBUTE MESH_D003967 {0,1}
@ATTRIBUTE MESH_D004067 {0,1}
@ATTRIBUTE MESH_D004121 {0,1}
@ATTRIBUTE MESH_D004211 {0,1}
@ATTRIBUTE MESH_D004229 {0,1}
@ATTRIBUTE MESH_D004244 {0,1}
@ATTRIBUTE MESH_D004298 {0,1}
@ATTRIBUTE MESH_D004318 {0,1}
@ATTRIBUTE MESH_D004342 {0,1}
@ATTRIBUTE MESH_D004408 {0,1}
@ATTRIBUTE MESH_D004417 {0,1}
@ATTRIBUTE MESH_D004421 {0,1}
@ATTRIBUTE MESH_D004487 {0,1}
@ATTRIBUTE MESH_D004492 {0,1}
@ATTRIBUTE MESH_D004630 {0,1}
@ATTRIBUTE MESH_D004646 {0,1}
@ATTRIBUTE MESH_D004660 {0,1}
@ATTRIBUTE MESH_D004673 {0,1}
@ATTRIBUTE MESH_D004801 {0,1}
@ATTRIBUTE MESH_D004827 {0,1}
@ATTRIBUTE MESH_D004837 {0,1}
@ATTRIBUTE MESH_D004890 {0,1}
@ATTRIBUTE MESH_D004958 {0,1}
@ATTRIBUTE MESH_D005076 {0,1}
@ATTRIBUTE MESH_D005184 {0,1}
@ATTRIBUTE MESH_D005221 {0,1}
@ATTRIBUTE MESH_D005227 {0,1}
@ATTRIBUTE MESH_D005234 {0,1}
@ATTRIBUTE MESH_D005334 {0,1}
@ATTRIBUTE MESH_D005355 {0,1}
@ATTRIBUTE MESH_D005419 {0,1}
@ATTRIBUTE MESH_D005483 {0,1}
@ATTRIBUTE MESH_D005492 {0,1}
@ATTRIBUTE MESH_D005557 {0,1}
@ATTRIBUTE MESH_D005597 {0,1}
@ATTRIBUTE MESH_D005759 {0,1}
@ATTRIBUTE MESH_D005767 {0,1}
@ATTRIBUTE MESH_D005776 {0,1}
@ATTRIBUTE MESH_D005840 {0,1}
@ATTRIBUTE MESH_D005862 {0,1}
@ATTRIBUTE MESH_D005901 {0,1}
@ATTRIBUTE MESH_D005921 {0,1}
@ATTRIBUTE MESH_D005947 {0,1}
@ATTRIBUTE MESH_D005973 {0,1}
@ATTRIBUTE MESH_D005978 {0,1}
@ATTRIBUTE MESH_D005998 {0,1}
@ATTRIBUTE MESH_D006025 {0,1}
@ATTRIBUTE MESH_D006086 {0,1}
@ATTRIBUTE MESH_D006147 {0,1}
@ATTRIBUTE MESH_D006258 {0,1}
@ATTRIBUTE MESH_D006261 {0,1}
@ATTRIBUTE MESH_D006323 {0,1}
@ATTRIBUTE MESH_D006327 {0,1}
@ATTRIBUTE MESH_D006330 {0,1}
@ATTRIBUTE MESH_D006331 {0,1}
@ATTRIBUTE MESH_D006333 {0,1}
@ATTRIBUTE MESH_D006335 {0,1}
@ATTRIBUTE MESH_D006349 {0,1}
@ATTRIBUTE MESH_D006371 {0,1}
@ATTRIBUTE MESH_D006402 {0,1}
@ATTRIBUTE MESH_D006406 {0,1}
@ATTRIBUTE MESH_D006416 {0,1}
@ATTRIBUTE MESH_D006417 {0,1}
@ATTRIBUTE MESH_D006461 {0,1}
@ATTRIBUTE MESH_D006469 {0,1}
@ATTRIBUTE MESH_D006470 {0,1}
@ATTRIBUTE MESH_D006480 {0,1}
@ATTRIBUTE MESH_D006493 {0,1}
@ATTRIBUTE MESH_D006495 {0,1}
@ATTRIBUTE MESH_D006497 {0,1}
@ATTRIBUTE MESH_D006509 {0,1}
@ATTRIBUTE MESH_D006525 {0,1}
@ATTRIBUTE MESH_D006526 {0,1}
@ATTRIBUTE MESH_D006527 {0,1}
@ATTRIBUTE MESH_D006528 {0,1}
@ATTRIBUTE MESH_D006531 {0,1}
@ATTRIBUTE MESH_D006620 {0,1}
@ATTRIBUTE MESH_D006623 {0,1}
@ATTRIBUTE MESH_D006632 {0,1}
@ATTRIBUTE MESH_D006639 {0,1}
@ATTRIBUTE MESH_D006816 {0,1}
@ATTRIBUTE MESH_D006851 {0,1}
@ATTRIBUTE MESH_D006854 {0,1}
@ATTRIBUTE MESH_D006859 {0,1}
@ATTRIBUTE MESH_D006861 {0,1}
@ATTRIBUTE MESH_D006886 {0,1}
@ATTRIBUTE MESH_D006935 {0,1}
@ATTRIBUTE MESH_D006943 {0,1}
@ATTRIBUTE MESH_D006948 {0,1}
@ATTRIBUTE MESH_D006949 {0,1}
@ATTRIBUTE MESH_D006965 {0,1}
@ATTRIBUTE MESH_D006973 {0,1}
@ATTRIBUTE MESH_D006976 {0,1}
@ATTRIBUTE MESH_D006987 {0,1}
@ATTRIBUTE MESH_D007008 {0,1}
@ATTRIBUTE MESH_D007010 {0,1}
@ATTRIBUTE MESH_D007022 {0,1}
@ATTRIBUTE MESH_D007029 {0,1}
@ATTRIBUTE MESH_D007037 {0,1}
@ATTRIBUTE MESH_D007039 {0,1}
@ATTRIBUTE MESH_D007052 {0,1}
@ATTRIBUTE MESH_D007153 {0,1}
@ATTRIBUTE MESH_D007154 {0,1}
@ATTRIBUTE MESH_D007174 {0,1}
@ATTRIBUTE MESH_D007238 {0,1}
@ATTRIBUTE MESH_D007239 {0,1}
@ATTRIBUTE MESH_D007247 {0,1}
@ATTRIBUTE MESH_D007249 {0,1}
@ATTRIBUTE MESH_D007251 {0,1}
@ATTRIBUTE MESH_D007319 {0,1}
@ATTRIBUTE MESH_D007410 {0,1}
@ATTRIBUTE MESH_D007455 {0,1}
@ATTRIBUTE MESH_D007501 {0,1}
@ATTRIBUTE MESH_D007511 {0,1}
@ATTRIBUTE MESH_D007589 {0,1}
@ATTRIBUTE MESH_D007592 {0,1}
@ATTRIBUTE MESH_D007649 {0,1}
@ATTRIBUTE MESH_D007674 {0,1}
@ATTRIBUTE MESH_D007676 {0,1}
@ATTRIBUTE MESH_D007703 {0,1}
@ATTRIBUTE MESH_D007854 {0,1}
@ATTRIBUTE MESH_D007859 {0,1}
@ATTRIBUTE MESH_D007930 {0,1}
@ATTRIBUTE MESH_D007938 {0,1}
@ATTRIBUTE MESH_D007951 {0,1}
@ATTRIBUTE MESH_D007964 {0,1}
@ATTRIBUTE MESH_D007970 {0,1}
@ATTRIBUTE MESH_D008055 {0,1}
@ATTRIBUTE MESH_D008070 {0,1}
@ATTRIBUTE MESH_D008094 {0,1}
@ATTRIBUTE MESH_D008103 {0,1}
@ATTRIBUTE MESH_D008107 {0,1}
@ATTRIBUTE MESH_D008133 {0,1}
@ATTRIBUTE MESH_D008171 {0,1}
@ATTRIBUTE MESH_D008175 {0,1}
@ATTRIBUTE MESH_D008180 {0,1}
@ATTRIBUTE MESH_D008206 {0,1}
@ATTRIBUTE MESH_D008223 {0,1}
@ATTRIBUTE MESH_D008231 {0,1}
@ATTRIBUTE MESH_D008239 {0,1}
@ATTRIBUTE MESH_D008268 {0,1}
@ATTRIBUTE MESH_D008274 {0,1}
@ATTRIBUTE MESH_D008288 {0,1}
@ATTRIBUTE MESH_D008310 {0,1}
@ATTRIBUTE MESH_D008545 {0,1}
@ATTRIBUTE MESH_D008569 {0,1}
@ATTRIBUTE MESH_D008581 {0,1}
@ATTRIBUTE MESH_D008589 {0,1}
@ATTRIBUTE MESH_D008607 {0,1}
@ATTRIBUTE MESH_D008628 {0,1}
@ATTRIBUTE MESH_D008659 {0,1}
@ATTRIBUTE MESH_D008661 {0,1}
@ATTRIBUTE MESH_D008670 {0,1}
@ATTRIBUTE MESH_D008687 {0,1}
@ATTRIBUTE MESH_D008691 {0,1}
@ATTRIBUTE MESH_D008727 {0,1}
@ATTRIBUTE MESH_D008751 {0,1}
@ATTRIBUTE MESH_D008775 {0,1}
@ATTRIBUTE MESH_D008881 {0,1}
@ATTRIBUTE MESH_D009059 {0,1}
@ATTRIBUTE MESH_D009069 {0,1}
@ATTRIBUTE MESH_D009080 {0,1}
@ATTRIBUTE MESH_D009101 {0,1}
@ATTRIBUTE MESH_D009102 {0,1}
@ATTRIBUTE MESH_D009103 {0,1}
@ATTRIBUTE MESH_D009127 {0,1}
@ATTRIBUTE MESH_D009135 {0,1}
@ATTRIBUTE MESH_D009140 {0,1}
@ATTRIBUTE MESH_D009173 {0,1}
@ATTRIBUTE MESH_D009181 {0,1}
@ATTRIBUTE MESH_D009187 {0,1}
@ATTRIBUTE MESH_D009190 {0,1}
@ATTRIBUTE MESH_D009202 {0,1}
@ATTRIBUTE MESH_D009203 {0,1}
@ATTRIBUTE MESH_D009205 {0,1}
@ATTRIBUTE MESH_D009207 {0,1}
@ATTRIBUTE MESH_D009223 {0,1}
@ATTRIBUTE MESH_D009325 {0,1}
@ATTRIBUTE MESH_D009336 {0,1}
@ATTRIBUTE MESH_D009362 {0,1}
@ATTRIBUTE MESH_D009369 {0,1}
@ATTRIBUTE MESH_D009404 {0,1}
@ATTRIBUTE MESH_D009410 {0,1}
@ATTRIBUTE MESH_D009422 {0,1}
@ATTRIBUTE MESH_D009436 {0,1}
@ATTRIBUTE MESH_D009437 {0,1}
@ATTRIBUTE MESH_D009447 {0,1}
@ATTRIBUTE MESH_D009461 {0,1}
@ATTRIBUTE MESH_D009503 {0,1}
@ATTRIBUTE MESH_D009538 {0,1}
@ATTRIBUTE MESH_D009569 {0,1}
@ATTRIBUTE MESH_D009584 {0,1}
@ATTRIBUTE MESH_D009638 {0,1}
@ATTRIBUTE MESH_D009705 {0,1}
@ATTRIBUTE MESH_D009757 {0,1}
@ATTRIBUTE MESH_D009765 {0,1}
@ATTRIBUTE MESH_D009771 {0,1}
@ATTRIBUTE MESH_D009784 {0,1}
@ATTRIBUTE MESH_D009798 {0,1}
@ATTRIBUTE MESH_D009800 {0,1}
@ATTRIBUTE MESH_D009821 {0,1}
@ATTRIBUTE MESH_D009841 {0,1}
@ATTRIBUTE MESH_D009894 {0,1}
@ATTRIBUTE MESH_D010003 {0,1}
@ATTRIBUTE MESH_D010024 {0,1}
@ATTRIBUTE MESH_D010051 {0,1}
@ATTRIBUTE MESH_D010100 {0,1}
@ATTRIBUTE MESH_D010126 {0,1}
@ATTRIBUTE MESH_D010146 {0,1}
@ATTRIBUTE MESH_D010190 {0,1}
@ATTRIBUTE MESH_D010195 {0,1}
@ATTRIBUTE MESH_D010232 {0,1}
@ATTRIBUTE MESH_D010243 {0,1}
@ATTRIBUTE MESH_D010259 {0,1}
@ATTRIBUTE MESH_D010272 {0,1}
@ATTRIBUTE MESH_D010300 {0,1}
@ATTRIBUTE MESH_D010302 {0,1}
@ATTRIBUTE MESH_D010406 {0,1}
@ATTRIBUTE MESH_D010455 {0,1}
@ATTRIBUTE MESH_D010490 {0,1}
@ATTRIBUTE MESH_D010493 {0,1}
@ATTRIBUTE MESH_D010608 {0,1}
@ATTRIBUTE MESH_D010649 {0,1}
@ATTRIBUTE MESH_D010698 {0,1}
@ATTRIBUTE MESH_D010710 {0,1}
@ATTRIBUTE MESH_D010743 {0,1}
@ATTRIBUTE MESH_D010996 {0,1}
@ATTRIBUTE MESH_D011008 {0,1}
@ATTRIBUTE MESH_D011014 {0,1}
@ATTRIBUTE MESH_D011020 {0,1}
@ATTRIBUTE MESH_D011024 {0,1}
@ATTRIBUTE MESH_D011027 {0,1}
@ATTRIBUTE MESH_D011030 {0,1}
@ATTRIBUTE MESH_D011051 {0,1}
@ATTRIBUTE MESH_D011092 {0,1}
@ATTRIBUTE MESH_D011108 {0,1}
@ATTRIBUTE MESH_D011125 {0,1}
@ATTRIBUTE MESH_D011126 {0,1}
@ATTRIBUTE MESH_D011134 {0,1}
@ATTRIBUTE MESH_D011136 {0,1}
@ATTRIBUTE MESH_D011137 {0,1}
@ATTRIBUTE MESH_D011188 {0,1}
@ATTRIBUTE MESH_D011239 {0,1}
@ATTRIBUTE MESH_D011241 {0,1}
@ATTRIBUTE MESH_D011251 {0,1}
@ATTRIBUTE MESH_D011392 {0,1}
@ATTRIBUTE MESH_D011471 {0,1}
@ATTRIBUTE MESH_D011507 {0,1}
@ATTRIBUTE MESH_D011537 {0,1}
@ATTRIBUTE MESH_D011595 {0,1}
@ATTRIBUTE MESH_D011596 {0,1}
@ATTRIBUTE MESH_D011605 {0,1}
@ATTRIBUTE MESH_D011618 {0,1}
@ATTRIBUTE MESH_D011654 {0,1}
@ATTRIBUTE MESH_D011655 {0,1}
@ATTRIBUTE MESH_D011658 {0,1}
@ATTRIBUTE MESH_D011794 {0,1}
@ATTRIBUTE MESH_D012030 {0,1}
@ATTRIBUTE MESH_D012080 {0,1}
@ATTRIBUTE MESH_D012120 {0,1}
@ATTRIBUTE MESH_D012128 {0,1}
@ATTRIBUTE MESH_D012131 {0,1}
@ATTRIBUTE MESH_D012140 {0,1}
@ATTRIBUTE MESH_D012141 {0,1}
@ATTRIBUTE MESH_D012163 {0,1}
@ATTRIBUTE MESH_D012164 {0,1}
@ATTRIBUTE MESH_D012213 {0,1}
@ATTRIBUTE MESH_D012216 {0,1}
@ATTRIBUTE MESH_D012220 {0,1}
@ATTRIBUTE MESH_D012254 {0,1}
@ATTRIBUTE MESH_D012400 {0,1}
@ATTRIBUTE MESH_D012409 {0,1}
@ATTRIBUTE MESH_D012421 {0,1}
@ATTRIBUTE MESH_D012492 {0,1}
@ATTRIBUTE MESH_D012509 {0,1}
@ATTRIBUTE MESH_D012559 {0,1}
@ATTRIBUTE MESH_D012640 {0,1}
@ATTRIBUTE MESH_D012678 {0,1}
@ATTRIBUTE MESH_D012685 {0,1}
@ATTRIBUTE MESH_D012694 {0,1}
@ATTRIBUTE MESH_D012769 {0,1}
@ATTRIBUTE MESH_D012770 {0,1}
@ATTRIBUTE MESH_D012772 {0,1}
@ATTRIBUTE MESH_D012817 {0,1}
@ATTRIBUTE MESH_D012818 {0,1}
@ATTRIBUTE MESH_D012822 {0,1}
@ATTRIBUTE MESH_D012834 {0,1}
@ATTRIBUTE MESH_D012851 {0,1}
@ATTRIBUTE MESH_D012871 {0,1}
@ATTRIBUTE MESH_D012878 {0,1}
@ATTRIBUTE MESH_D012891 {0,1}
@ATTRIBUTE MESH_D012892 {0,1}
@ATTRIBUTE MESH_D012893 {0,1}
@ATTRIBUTE MESH_D012964 {0,1}
@ATTRIBUTE MESH_D012965 {0,1}
@ATTRIBUTE MESH_D012967 {0,1}
@ATTRIBUTE MESH_D012973 {0,1}
@ATTRIBUTE MESH_D013203 {0,1}
@ATTRIBUTE MESH_D013226 {0,1}
@ATTRIBUTE MESH_D013256 {0,1}
@ATTRIBUTE MESH_D013274 {0,1}
@ATTRIBUTE MESH_D013307 {0,1}
@ATTRIBUTE MESH_D013313 {0,1}
@ATTRIBUTE MESH_D013345 {0,1}
@ATTRIBUTE MESH_D013455 {0,1}
@ATTRIBUTE MESH_D013575 {0,1}
@ATTRIBUTE MESH_D013610 {0,1}
@ATTRIBUTE MESH_D013651 {0,1}
@ATTRIBUTE MESH_D013667 {0,1}
@ATTRIBUTE MESH_D013725 {0,1}
@ATTRIBUTE MESH_D013739 {0,1}
@ATTRIBUTE MESH_D013746 {0,1}
@ATTRIBUTE MESH_D013921 {0,1}
@ATTRIBUTE MESH_D013923 {0,1}
@ATTRIBUTE MESH_D013927 {0,1}
@ATTRIBUTE MESH_D014202 {0,1}
@ATTRIBUTE MESH_D014280 {0,1}
@ATTRIBUTE MESH_D014376 {0,1}
@ATTRIBUTE MESH_D014456 {0,1}
@ATTRIBUTE MESH_D014508 {0,1}
@ATTRIBUTE MESH_D014527 {0,1}
@ATTRIBUTE MESH_D014552 {0,1}
@ATTRIBUTE MESH_D014581 {0,1}
@ATTRIBUTE MESH_D014612 {0,1}
@ATTRIBUTE MESH_D014640 {0,1}
@ATTRIBUTE MESH_D014657 {0,1}
@ATTRIBUTE MESH_D014693 {0,1}
@ATTRIBUTE MESH_D014766 {0,1}
@ATTRIBUTE MESH_D014777 {0,1}
@ATTRIBUTE MESH_D014786 {0,1}
@ATTRIBUTE MESH_D014801 {0,1}
@ATTRIBUTE MESH_D014805 {0,1}
@ATTRIBUTE MESH_D014807 {0,1}
@ATTRIBUTE MESH_D014839 {0,1}
@ATTRIBUTE MESH_D014842 {0,1}
@ATTRIBUTE MESH_D014867 {0,1}
@ATTRIBUTE MESH_D014947 {0,1}
@ATTRIBUTE MESH_D014987 {0,1}
@ATTRIBUTE MESH_D015047 {0,1}
@ATTRIBUTE MESH_D015179 {0,1}
@ATTRIBUTE MESH_D015212 {0,1}
@ATTRIBUTE MESH_D015415 {0,1}
@ATTRIBUTE MESH_D015430 {0,1}
@ATTRIBUTE MESH_D015431 {0,1}
@ATTRIBUTE MESH_D015451 {0,1}
@ATTRIBUTE MESH_D015470 {0,1}
@ATTRIBUTE MESH_D015658 {0,1}
@ATTRIBUTE MESH_D015673 {0,1}
@ATTRIBUTE MESH_D015746 {0,1}
@ATTRIBUTE MESH_D015835 {0,1}
@ATTRIBUTE MESH_D016207 {0,1}
@ATTRIBUTE MESH_D016393 {0,1}
@ATTRIBUTE MESH_D016559 {0,1}
@ATTRIBUTE MESH_D016572 {0,1}
@ATTRIBUTE MESH_D016584 {0,1}
@ATTRIBUTE MESH_D016638 {0,1}
@ATTRIBUTE MESH_D016751 {0,1}
@ATTRIBUTE MESH_D016920 {0,1}
@ATTRIBUTE MESH_D017093 {0,1}
@ATTRIBUTE MESH_D017114 {0,1}
@ATTRIBUTE MESH_D017180 {0,1}
@ATTRIBUTE MESH_D017382 {0,1}
@ATTRIBUTE MESH_D017563 {0,1}
@ATTRIBUTE MESH_D017566 {0,1}
@ATTRIBUTE MESH_D017830 {0,1}
@ATTRIBUTE MESH_D017887 {0,1}
@ATTRIBUTE MESH_D017963 {0,1}
@ATTRIBUTE MESH_D017984 {0,1}
@ATTRIBUTE MESH_D018177 {0,1}
@ATTRIBUTE MESH_D018352 {0,1}
@ATTRIBUTE MESH_D018357 {0,1}
@ATTRIBUTE MESH_D018376 {0,1}
@ATTRIBUTE MESH_D018450 {0,1}
@ATTRIBUTE MESH_D018455 {0,1}
@ATTRIBUTE MESH_D018476 {0,1}
@ATTRIBUTE MESH_D018487 {0,1}
@ATTRIBUTE MESH_D018698 {0,1}
@ATTRIBUTE MESH_D018754 {0,1}
@ATTRIBUTE MESH_D018771 {0,1}
@ATTRIBUTE MESH_D018805 {0,1}
@ATTRIBUTE MESH_D018908 {0,1}
@ATTRIBUTE MESH_D018942 {0,1}
@ATTRIBUTE MESH_D018980 {0,1}
@ATTRIBUTE MESH_D019052 {0,1}
@ATTRIBUTE MESH_D019142 {0,1}
@ATTRIBUTE MESH_D019337 {0,1}
@ATTRIBUTE MESH_D019344 {0,1}
@ATTRIBUTE MESH_D019438 {0,1}
@ATTRIBUTE MESH_D019636 {0,1}
@ATTRIBUTE MESH_D019698 {0,1}
@ATTRIBUTE MESH_D019808 {0,1}
@ATTRIBUTE MESH_D019810 {0,1}
@ATTRIBUTE MESH_D019851 {0,1}
@ATTRIBUTE MESH_D019964 {0,1}
@ATTRIBUTE MESH_D019965 {0,1}
@ATTRIBUTE MESH_D019966 {0,1}
@ATTRIBUTE MESH_D020018 {0,1}
@ATTRIBUTE MESH_D020031 {0,1}
@ATTRIBUTE MESH_D020144 {0,1}
@ATTRIBUTE MESH_D020246 {0,1}
@ATTRIBUTE MESH_D020257 {0,1}
@ATTRIBUTE MESH_D020258 {0,1}
@ATTRIBUTE MESH_D020271 {0,1}
@ATTRIBUTE MESH_D020300 {0,1}
@ATTRIBUTE MESH_D020521 {0,1}
@ATTRIBUTE MESH_D021081 {0,1}
@ATTRIBUTE MESH_D024821 {0,1}
@ATTRIBUTE MESH_D025861 {0,1}
@ATTRIBUTE MESH_D028361 {0,1}
@ATTRIBUTE MESH_D029424 {0,1}
@ATTRIBUTE MESH_D030342 {0,1}
@ATTRIBUTE MESH_D030361 {0,1}
@ATTRIBUTE MESH_D034141 {0,1}
@ATTRIBUTE MESH_D034381 {0,1}
@ATTRIBUTE MESH_D034721 {0,1}
@ATTRIBUTE MESH_D040921 {0,1}
@ATTRIBUTE MESH_D043183 {0,1}
@ATTRIBUTE MESH_D044342 {0,1}
@ATTRIBUTE MESH_D045169 {0,1}
@ATTRIBUTE MESH_D048909 {0,1}
@ATTRIBUTE MESH_D049310 {0,1}
@ATTRIBUTE MESH_D050171 {0,1}
@ATTRIBUTE MESH_D050197 {0,1}
@ATTRIBUTE MESH_D050497 {0,1}
@ATTRIBUTE MESH_D050723 {0,1}
@ATTRIBUTE MESH_D051271 {0,1}
@ATTRIBUTE MESH_D051359 {0,1}
@ATTRIBUTE MESH_D051436 {0,1}
@ATTRIBUTE MESH_D051437 {0,1}
@ATTRIBUTE MESH_D052016 {0,1}
@ATTRIBUTE MESH_D053139 {0,1}
@ATTRIBUTE MESH_D053609 {0,1}
@ATTRIBUTE MESH_D054058 {0,1}
@ATTRIBUTE MESH_D054537 {0,1}
@ATTRIBUTE MESH_D054549 {0,1}
@ATTRIBUTE MESH_D054556 {0,1}
@ATTRIBUTE MESH_D054990 {0,1}
@ATTRIBUTE MESH_D055370 {0,1}
@ATTRIBUTE MESH_D055371 {0,1}
@ATTRIBUTE MESH_D055501 {0,1}
@ATTRIBUTE MESH_D056486 {0,1}
@ATTRIBUTE MESH_D056587 {0,1}
@ATTRIBUTE MESH_D056784 {0,1}
@ATTRIBUTE MESH_D057049 {0,1}
@ATTRIBUTE MESH_D057772 {0,1}
@ATTRIBUTE MESH_D058186 {0,1}
@ATTRIBUTE MESH_D058345 {0,1}
@ATTRIBUTE MESH_D058540 {0,1}
@ATTRIBUTE MESH_D058625 {0,1}
@ATTRIBUTE MESH_D058729 {0,1}
@ATTRIBUTE MESH_D059246 {0,1}
@ATTRIBUTE MESH_D059350 {0,1}
@ATTRIBUTE MESH_D059390 {0,1}
@ATTRIBUTE MESH_D059787 {0,1}
@ATTRIBUTE MESH_D059808 {0,1}
@ATTRIBUTE MESH_D060085 {0,1}
@ATTRIBUTE MESH_D060825 {0,1}
@ATTRIBUTE MESH_D061325 {0,1}
@ATTRIBUTE MESH_D061466 {0,1}
@ATTRIBUTE MESH_D062787 {0,1}
@ATTRIBUTE MESH_D063806 {0,1}
@ATTRIBUTE MESH_D064420 {0,1}
@ATTRIBUTE MESH_D066126 {0,1}

@DATA
{4 1,166 1,215 1,292 1,395 1,447 1}
{4 1,53 1,75 1,91 1,137 1,159 1,166 1,168 1,175 1,183 1,184 1,197 1,215 1,237 1,241 1,278 1,288 1,292 1,312 1,320 1,338 1,350 1,360 1,367 1,370 1,378 1,382 1,393 1,395 1,441 1,447 1,450 1,471 1,501 1,506 1,533 1,542 1,565 1,566 1,573 1,586 1,614 1,622 1,632 1,647 1}
{4 1,175 1,292 1,415 1}
{4 1,526 1}
{4 1,84 1,175 1}
{4 1,48 1,59 1,85 1,110 1,137 1,148 1,160 1,175 1,195 1,212 1,215 1,269 1,280 1,292 1,294 1,296 1,304 1,335 1,383 1,395 1,400 1,417 1,438 1,439 1,478 1,479 1,489 1,523 1,556 1,573 1,602 1,612 1}
{4 1,37 1,59 1,85 1,110 1,153 1,160 1,175 1,206 1,292 1,462 1,479 1,489 1,536 1,556 1,605 1}
{4 1,48 1,59 1,85 1,89 1,92 1,113 1,153 1,155 1,160 1,175 1,184 1,241 1,278 1,292 1,367 1,386 1,449 1,462 1,522 1,556 1,591 1,600 1,614 1,634 1}
{4 1,522 1}
{4 1,85 1,124 1,160 1,175 1,187 1,257 1,292 1,333 1,414 1,415 1,417 1,431 1,449 1,450 1,556 1,605 1,642 1}
{4 1,86 1,160 1,192 1,236 1,292 1,330 1,346 1,367 1,408 1,455 1,526 1,600 1,616 1}
{4 1,85 1,175 1,292 1,582 1}
{4 1,59 1,85 1,110 1,463 1}
{4 1}
{4 1,385 1,450 1}
{4 1,59 1,66 1,76 1,85 1,144 1,149 1,175 1,215 1,278 1,292 1,296 1,415 1,449 1,471 1,483 1,556 1,591 1}
{4 1,50 1,155 1,166 1,292 1,417 1,471 1,556 1}
{4 1,48 1,59 1,85 1,88 1,110 1,175 1,184 1,241 1,292 1,362 1,395 1,400 1,438 1,439 1,447 1,462 1,489 1,556 1,580 1}
{4 1,175 1,292 1,633 1,642 1}
{4 1,367 1,531 1}
{4 1,63 1,69 1,82 1,97 1,120 1,121 1,144 1,145 1,146 1,175 1,184 1,252 1,278 1,291 1,292 1,340 1,360 1,363 1,370 1,415 1,500 1,501 1,554 1,556 1,591 1,622 1}
{4 1,292 1,395 1}
{4 1,85 1}
{4 1,63 1,81 1,137 1,166 1,175 1,184 1,187 1,197 1,212 1,215 1,237 1,278 1,283 1,288 1,292 1,320 1,364 1,370 1,381 1,382 1,408 1,449 1,450 1,470 1,494 1,520 1,535 1,542 1,556 1,612 1,614 1,624 1,635 1,647 1}
{4 1,17 1,89 1,94 1,175 1,264 1,304 1,342 1,354 1,453 1,454 1,556 1}
{4 1,52 1,97 1,118 1,126 1,139 1,166 1,168 1,175 1,193 1,197 1,207 1,212 1,215 1,229 1,237 1,241 1,272 1,274 1,278 1,283 1,292 1,300 1,304 1,320 1,350 1,378 1,393 1,408 1,415 1,428 1,447 1,448 1,492 1,506 1,542 1,553 1,556 1,566 1,614 1,615 1,620 1,632 1,648 1}
{4 1,343 1,417 1,422 1,475 1,556 1}
{4 1,15 1,82 1,89 1,93 1,94 1,104 1,110 1,175 1,234 1,292 1,322 1,348 1,417 1,446 1,448 1,556 1,613 1,626 1,643 1,644 1,648 1}
{4 1,50 1,89 1,148 1,160 1,166 1,195 1,197 1,199 1,208 1,210 1,215 1,265 1,292 1,393 1,449 1,475 1,479 1,509 1,520 1,530 1,556 1,628 1}
{4 1,59 1,175 1,212 1,292 1,367 1,417 1,556 1,567 1,648 1}
{4 1,175 1,296 1,382 1,470 1,536 1}
{4 1,17 1,129 1,264 1}
{4 1,48 1,72 1,85 1,89 1,128 1,160 1,175 1,217 1,267 1,270 1,272 1,367 1,393 1,522 1,574 1}
{4 1,48 1,59 1,85 1,153 1,175 1,292 1}
{4 1,79 1,84 1,110 1,195 1,242 1,272 1,292 1,318 1,327 1,367 1,415 1,417 1,556 1}
{152 1,183 1,213 1,486 1,517 1,519 1}
{4 1,417 1,556 1}
{4 1,59 1,85 1,98 1,110 1,130 1,148 1,197 1,212 1,254 1,304 1,415 1,500 1}
{4 1,32 1,36 1,45 1,80 1,84 1,85 1,104 1,137 1,146 1,148 1,153 1,160 1,166 1,168 1,175 1,184 1,187 1,192 1,195 1,197 1,212 1,215 1,254 1,255 1,278 1,288 1,292 1,294 1,296 1,304 1,344 1,350 1,359 1,361 1,393 1,415 1,417 1,441 1,447 1,448 1,450 1,471 1,505 1,506 1,528 1,542 1,545 1,556 1,566 1,612 1,614 1,627 1,631 1,635 1,645 1}
{4 1,82 1,89 1,91 1,170 1,175 1,183 1,184 1,242 1,269 1,278 1,292 1,320 1,393 1,415 1,440 1,446 1,447 1,448 1,482 1,486 1,542 1,566 1,615 1,624 1}
{4 1,215 1,238 1,292 1,355 1,360 1,393 1,468 1,539 1}
{4 1,59 1,79 1,85 1,91 1,94 1,99 1,110 1,130 1,137 1,148 1,165 1,166 1,175 1,179 1,184 1,187 1,196 1,197 1,212 1,215 1,237 1,241 1,242 1,276 1,278 1,285 1,288 1,292 1,359 1,360 1,367 1,382 1,393 1,395 1,446 1,447 1,449 1,462 1,477 1,486 1,500 1,501 1,534 1,556 1,565 1,586 1,591 1,593 1,596 1,602 1,605 1,637 1,647 1}
{4 1,23 1,48 1,59 1,60 1,72 1,85 1,110 1,125 1,135 1,137 1,153 1,165 1,175 1,180 1,184 1,186 1,212 1,241 1,260 1,264 1,292 1,354 1,367 1,382 1,391 1,415 1,463 1,522 1,552 1,556 1,611 1}
{4 1,59 1,99 1,101 1,137 1,153 1,160 1,166 1,175 1,183 1,184 1,197 1,215 1,238 1,278 1,292 1,294 1,320 1,329 1,367 1,379 1,393 1,398 1,448 1,488 1,504 1,533 1,567 1,596 1,612 1,614 1,615 1,637 1,642 1}
{4 1,42 1,76 1,109 1,122 1,144 1,206 1,224 1,292 1,300 1,367 1,370 1,395 1,402 1,415 1,417 1,459 1,523 1,556 1,590 1,591 1}
{4 1,175 1,447 1,545 1}
{4 1}
{4 1}
{4 1,160 1,175 1,292 1,417 1,522 1,556 1}
{4 1,78 1,84 1,298 1}
{4 1,175 1,356 1,367 1,447 1,542 1}
{4 1,59 1,69 1,153 1,175 1,184 1,278 1,292 1,382 1,450 1,522 1}
{3 1,4 1,48 1,59 1,85 1,102 1,103 1,113 1,382 1,383 1,410 1,462 1,479 1,489 1,541 1}
{4 1,71 1,89 1,116 1,153 1,160 1,166 1,175 1,187 1,195 1,197 1,199 1,208 1,212 1,215 1,228 1,237 1,257 1,288 1,292 1,294 1,395 1,415 1,435 1,533 1,601 1,611 1,647 1}
{4 1,36 1,48 1,85 1,128 1,166 1,212 1,215 1,292 1,304 1,325 1,348 1,367 1,395 1,417 1,508 1,523 1,556 1,581 1,615 1,628 1}
{2 1,4 1,89 1,119 1,141 1,143 1,146 1,160 1,175 1,179 1,183 1,203 1,237 1,254 1,272 1,292 1,300 1,320 1,344 1,370 1,393 1,449 1,463 1,486 1,490 1,589 1,591 1,645 1}
{4 1,294 1,628 1}
{4 1,14 1,85 1,160 1,175 1,182 1,278 1,292 1,449 1,529 1,611 1}
{4 1}
{4 1,23 1,48 1,59 1,85 1,110 1,155 1,160 1,175 1,212 1,290 1,382 1,383 1,450 1,467 1,489 1,522 1,529 1,556 1,583 1}
{4 1,24 1,85 1,166 1,175 1,292 1,522 1}
{4 1,39 1,48 1,59 1,60 1,69 1,72 1,85 1,153 1,175 1,198 1,212 1,278 1,292 1,395 1,459 1,463 1,489 1,523 1,580 1,602 1,612 1}
{4 1}
{4 1,278 1,382 1,393 1,415 1,447 1,542 1,597 1,624 1,625 1,632 1}
{4 1,160 1,175 1,292 1,605 1,634 1,642 1}
{4 1,242 1,292 1,308 1,530 1}
{4 1}
{4 1,55 1,57 1,65 1,74 1,89 1,128 1,232 1,235 1,270 1,339 1,371 1,378 1,393 1,411 1,415 1,477 1,491 1,522 1,530 1,648 1}
{4 1,64 1,75 1,175 1,188 1,223 1,224 1,292 1,367 1,487 1,612 1,648 1}
{4 1,241 1}
{0 1,4 1,22 1,48 1,137 1,139 1,165 1,166 1,175 1,212 1,215 1,241 1,292 1,294 1,359 1,361 1,379 1,382 1,393 1,417 1,550 1,556 1,562 1,601 1,621 1,647 1,648 1,649 1}
{4 1,84 1}
{4 1,18 1,38 1,160 1,166 1,175 1,184 1,215 1,241 1,292 1,295 1,414 1,415 1,449 1,642 1}
{4 1,59 1,85 1,155 1,175 1,296 1,321 1,383 1,444 1,449 1,556 1,597 1,598 1}
{4 1}
{4 1,146 1,175 1,447 1,542 1,624 1}
{4 1,59 1,85 1,175 1,646 1}
{4 1,115 1,510 1}
{4 1}
{4 1,556 1}
{4 1,160 1,170 1,271 1,292 1,417 1,483 1,556 1}
{4 1,88 1,89 1,91 1,110 1,125 1,126 1,137 1,151 1,158 1,160 1,164 1,175 1,183 1,184 1,186 1,187 1,188 1,194 1,197 1,212 1,215 1,219 1,237 1,242 1,259 1,272 1,278 1,283 1,288 1,292 1,294 1,299 1,317 1,319 1,328 1,329 1,337 1,339 1,346 1,364 1,367 1,369 1,393 1,415 1,421 1,443 1,450 1,456 1,517 1,520 1,527 1,542 1,553 1,556 1,575 1,576 1,605 1,618 1,627 1,642 1,648 1,649 1}
{4 1,82 1,119 1,121 1,129 1,141 1,175 1,179 1,273 1,300 1,393 1,447 1,448 1,542 1,573 1,591 1}
{4 1,526 1,569 1}
{4 1,395 1}
{4 1,12 1,95 1,160 1,292 1,318 1,323 1,325 1,413 1,415 1,417 1,447 1,450 1,556 1,558 1,559 1,627 1,633 1,642 1}
{4 1,215 1,292 1,354 1,367 1,370 1,374 1,395 1,441 1,453 1,523 1,565 1,586 1,611 1}
{4 1,48 1,85 1,423 1,556 1}
{4 1,60 1,89 1,175 1,241 1,278 1,292 1,304 1,306 1,415 1,417 1,545 1,556 1,605 1}
{4 1,153 1,175 1,195 1,292 1,294 1,314 1,446 1,449 1,556 1,642 1}
{292 1}
{4 1,59 1,85 1,110 1,118 1,221 1,463 1,530 1}
{292 1,463 1}
{4 1,40 1,42 1,58 1,85 1,89 1,95 1,137 1,148 1,153 1,155 1,166 1,175 1,182 1,184 1,195 1,197 1,198 1,212 1,213 1,215 1,229 1,231 1,237 1,238 1,270 1,271 1,283 1,291 1,292 1,294 1,314 1,315 1,320 1,332 1,337 1,339 1,353 1,367 1,370 1,372 1,377 1,378 1,393 1,402 1,433 1,449 1,470 1,479 1,481 1,506 1,507 1,513 1,522 1,526 1,534 1,548 1,565 1,567 1,573 1,587 1,589 1,593 1,595 1,647 1}
{4 1}
{4 1}
{4 1,69 1,134 1,160 1,175 1,236 1,292 1,360 1,367 1,386 1,448 1,556 1,591 1}
{2 1,4 1,10 1,15 1,51 1,59 1,67 1,73 1,81 1,89 1,90 1,104 1,175 1,184 1,186 1,213 1,219 1,229 1,230 1,246 1,272 1,289 1,292 1,294 1,314 1,367 1,377 1,378 1,382 1,393 1,423 1,432 1,433 1,447 1,497 1,506 1,518 1,522 1,524 1,537 1,556 1,563 1,566 1,573 1,588 1,604 1,632 1,647 1,648 1}
{4 1,17 1,82 1,97 1,144 1,175 1,184 1,254 1,255 1,264 1,320 1,441 1,447 1,499 1,501 1,556 1,585 1,594 1,622 1,631 1}
{4 1,19 1,175 1,523 1,605 1}
{4 1,81 1,153 1,166 1,175 1,196 1,197 1,212 1,215 1,237 1,264 1,292 1,304 1,395 1,408 1,455 1,470 1,556 1,647 1}
{2 1,4 1,6 1,58 1,89 1,90 1,112 1,129 1,175 1,189 1,200 1,292 1,307 1,324 1,367 1,378 1,405 1,415 1,423 1,542 1,556 1}
{4 1,80 1,81 1,82 1,110 1,137 1,155 1,160 1,166 1,175 1,180 1,184 1,187 1,196 1,215 1,278 1,289 1,292 1,294 1,296 1,305 1,367 1,382 1,393 1,408 1,471 1,506 1,520 1,596 1,635 1,637 1,647 1}
{1 1,2 1,4 1,21 1,33 1,34 1,62 1,89 1,107 1,129 1,137 1,170 1,175 1,183 1,184 1,191 1,200 1,242 1,278 1,289 1,292 1,294 1,304 1,307 1,311 1,325 1,332 1,350 1,365 1,367 1,374 1,378 1,381 1,393 1,396 1,399 1,415 1,423 1,437 1,446 1,447 1,448 1,450 1,466 1,469 1,486 1,531 1,533 1,537 1,542 1,556 1,566 1,592 1,596 1,614 1,624 1,642 1,648 1}
{4 1,131 1,175 1,226 1,523 1,542 1,607 1}
{4 1,48 1,59 1,85 1,102 1,110 1,175 1,224 1,292 1,382 1,417 1,446 1,479 1,556 1}
{4 1,89 1,160 1,174 1,197 1,215 1,292 1,373 1,415 1,463 1,533 1,556 1,624 1,642 1}
{4 1,35 1,99 1,160 1,175 1,184 1,240 1,250 1,252 1,278 1,292 1,318 1,320 1,382 1,393 1,415 1,441 1,447 1,556 1,586 1,610 1,622 1,644 1}
{4 1}
{4 1,160 1,175 1,292 1,415 1,447 1,556 1}
{4 1,36 1,77 1,82 1,89 1,165 1,169 1,175 1,234 1,241 1,242 1,246 1,291 1,292 1,294 1,296 1,300 1,302 1,310 1,365 1,367 1,377 1,390 1,402 1,415 1,422 1,447 1,532 1,538 1,542 1,575 1,642 1,648 1}
{4 1,54 1,76 1,97 1,116 1,158 1,175 1,184 1,187 1,197 1,199 1,215 1,254 1,278 1,292 1,300 1,360 1,386 1,395 1,415 1,417 1,418 1,441 1,470 1,500 1,501 1,520 1,535 1,556 1,579 1,615 1}
{4 1,78 1,306 1,417 1,556 1,577 1}
{4 1,33 1,64 1,89 1,97 1,132 1,139 1,165 1,241 1,278 1,294 1,325 1,359 1,360 1,393 1,415 1,417 1,431 1,448 1,554 1,556 1,561 1,564 1,621 1}
{4 1,91 1,102 1,148 1,176 1,197 1,240 1,241 1,278 1,417 1,493 1,556 1}
{4 1,48 1,85 1,175 1,224 1,536 1}
{4 1,23 1,27 1,39 1,48 1,59 1,85 1,104 1,110 1,113 1,115 1,153 1,173 1,175 1,184 1,198 1,279 1,292 1,296 1,367 1,368 1,383 1,402 1,439 1,446 1,479 1,489 1,541 1,605 1,612 1}
{4 1,18 1,260 1,292 1,320 1,596 1,623 1}
{4 1}
{4 1,48 1,59 1,85 1,110 1,175 1,395 1,415 1,417 1,556 1,638 1}
{4 1,236 1,367 1,417 1,556 1}
{4 1,63 1,64 1,166 1,175 1,215 1,292 1,374 1,417 1,494 1,556 1}
{4 1,15 1,59 1,89 1,92 1,94 1,157 1,175 1,197 1,206 1,237 1,292 1,294 1,363 1,376 1,379 1,415 1,447 1,450 1,463 1,527 1,542 1,566 1}
{4 1,19 1,89 1,175 1,292 1,304 1,409 1,556 1}
{4 1,22 1,26 1,40 1,75 1,76 1,89 1,99 1,104 1,105 1,107 1,143 1,160 1,165 1,168 1,171 1,173 1,175 1,195 1,228 1,246 1,252 1,257 1,259 1,283 1,292 1,294 1,304 1,325 1,342 1,348 1,354 1,355 1,359 1,361 1,365 1,389 1,401 1,408 1,415 1,416 1,429 1,449 1,450 1,454 1,467 1,484 1,486 1,504 1,509 1,512 1,533 1,539 1,540 1,548 1,564 1,585 1,599 1,609 1,627 1,628 1,631 1,644 1}
{4 1,69 1}
{4 1,160 1,175 1,292 1}
{4 1,53 1,54 1,59 1,75 1,110 1,123 1,137 1,153 1,160 1,175 1,184 1,187 1,278 1,292 1,329 1,367 1,414 1,448 1,449 1,450 1,504 1,533 1,604 1}
{4 1,66 1,150 1,170 1,175 1,292 1,415 1,525 1}
{4 1,292 1}
{4 1,59 1,69 1,123 1,153 1,175 1,184 1,206 1,292 1,351 1,367 1,433 1}
{4 1,166 1,175 1,197 1,215 1,237 1,292 1,408 1,494 1,556 1,565 1}
{4 1,31 1,110 1,175 1,190 1,215 1,246 1,252 1,292 1,311 1,349 1,367 1,395 1,415 1,448 1,501 1,538 1,542 1,556 1,572 1}
{4 1,80 1,89 1,99 1,116 1,137 1,146 1,148 1,160 1,166 1,168 1,175 1,184 1,187 1,192 1,195 1,197 1,212 1,215 1,229 1,237 1,251 1,276 1,278 1,292 1,294 1,305 1,318 1,325 1,350 1,364 1,365 1,367 1,374 1,378 1,382 1,393 1,395 1,406 1,408 1,413 1,415 1,440 1,446 1,447 1,448 1,449 1,455 1,469 1,506 1,520 1,533 1,535 1,542 1,556 1,559 1,565 1,566 1,596 1,605 1,614 1,624 1,632 1,635 1,642 1,647 1}
{2 1,4 1,32 1,53 1,65 1,69 1,76 1,82 1,96 1,99 1,104 1,111 1,124 1,137 1,144 1,146 1,155 1,168 1,175 1,180 1,183 1,184 1,206 1,215 1,242 1,272 1,276 1,278 1,283 1,292 1,304 1,318 1,320 1,325 1,360 1,367 1,370 1,382 1,402 1,415 1,447 1,448 1,450 1,454 1,466 1,499 1,533 1,556 1,573 1,591 1,624 1,627 1,632 1,637 1}
{4 1,417 1,556 1}
{84 1,317 1}
{4 1,44 1,69 1,80 1,89 1,95 1,126 1,127 1,137 1,150 1,166 1,168 1,169 1,175 1,184 1,187 1,188 1,197 1,212 1,215 1,223 1,229 1,236 1,257 1,278 1,292 1,294 1,314 1,364 1,367 1,409 1,415 1,428 1,449 1,465 1,470 1,471 1,480 1,499 1,520 1,527 1,533 1,603 1,627 1,642 1,647 1}
{4 1,38 1,89 1,107 1,150 1,157 1,160 1,164 1,166 1,173 1,175 1,197 1,252 1,271 1,292 1,294 1,314 1,315 1,320 1,365 1,367 1,393 1,394 1,411 1,412 1,414 1,415 1,417 1,433 1,447 1,448 1,449 1,450 1,473 1,522 1,525 1,542 1,543 1,548 1,556 1,566 1,584 1,596 1,627 1,629 1,642 1}
{4 1,175 1,292 1,415 1,449 1}
{2 1,4 1,15 1,24 1,27 1,69 1,70 1,80 1,89 1,111 1,116 1,137 1,146 1,148 1,166 1,168 1,175 1,183 1,184 1,187 1,192 1,197 1,212 1,215 1,237 1,241 1,242 1,246 1,278 1,292 1,294 1,304 1,317 1,318 1,350 1,359 1,364 1,367 1,378 1,382 1,408 1,414 1,415 1,448 1,449 1,469 1,471 1,506 1,520 1,530 1,535 1,542 1,556 1,596 1,599 1,614 1,627 1,642 1,647 1}
{4 1,36 1,175 1,184 1,213 1,252 1,257 1,278 1,292 1,294 1,332 1,382 1,418 1,447 1,448 1,449 1,459 1,520 1,556 1}
{4 1}
{4 1,32 1,175 1,183 1,269 1,272 1,367 1,444 1,447 1,463 1,553 1,556 1,568 1}
{4 1,175 1,184 1,294 1,382 1,417 1,446 1,556 1,559 1}
{4 1,24 1,59 1,69 1,85 1,160 1,166 1,175 1,184 1,185 1,186 1,215 1,219 1,292 1,351 1,367 1,450 1,463 1,471 1,476 1,496 1,556 1}
{4 1,16 1,131 1,226 1,417 1,556 1}
{4 1,30 1,63 1,81 1,89 1,107 1,112 1,137 1,160 1,175 1,184 1,203 1,223 1,241 1,272 1,278 1,292 1,293 1,294 1,320 1,367 1,369 1,393 1,399 1,415 1,465 1,542 1,549 1,556 1,612 1,642 1}
{4 1,82 1,85 1,166 1,175 1,184 1,187 1,195 1,197 1,201 1,215 1,278 1,363 1,382 1,393 1,395 1,447 1,448 1,505 1,542 1,596 1,624 1}
{4 1,153 1,160 1,175 1,292 1,308 1,367 1,384 1,387 1,556 1}
{4 1,166 1,175 1,292 1,320 1,415 1,447 1,449 1,596 1,624 1}
{4 1,292 1,415 1,417 1,446 1,556 1,605 1}
{4 1,89 1,160 1,175 1,187 1,215 1,253 1,292 1,364 1,520 1,556 1,647 1}
{3 1,4 1,175 1,301 1,463 1,522 1}
{4 1,42 1,109 1,175 1,237 1,291 1,292 1,463 1,474 1,520 1,523 1,590 1,611 1}
{4 1,48 1,53 1,59 1,82 1,85 1,89 1,102 1,103 1,110 1,113 1,146 1,148 1,153 1,160 1,175 1,179 1,197 1,212 1,215 1,290 1,292 1,294 1,296 1,383 1,400 1,436 1,438 1,439 1,447 1,449 1,462 1,489 1,523 1,533 1,541 1,556 1,580 1,581 1,605 1,612 1,644 1}
{4 1,48 1,59 1,85 1,92 1,137 1,165 1,175 1,184 1,197 1,292 1,390 1,395 1,523 1,565 1,611 1,638 1}
{4 1,166 1,175 1,215 1,292 1,408 1,449 1}
{4 1,75 1,89 1,110 1,116 1,160 1,168 1,184 1,186 1,212 1,215 1,249 1,252 1,292 1,317 1,365 1,367 1,418 1,450 1,471 1,504 1,508 1,535 1}
{2 1,4 1,15 1,116 1,160 1,175 1,184 1,216 1,241 1,292 1,294 1,300 1,317 1,318 1,382 1,448 1,501 1,545 1,622 1,627 1,635 1}
{4 1}
{4 1,82 1,89 1,91 1,94 1,137 1,151 1,166 1,175 1,197 1,215 1,242 1,272 1,281 1,292 1,319 1,322 1,359 1,360 1,361 1,417 1,446 1,447 1,468 1,492 1,513 1,514 1,553 1,556 1,562 1,615 1,632 1,646 1,649 1}
{4 1,85 1,179 1,292 1,296 1,417 1,469 1,479 1,556 1,566 1}
{4 1,175 1,300 1,591 1}
{4 1,417 1,523 1,556 1}
{4 1,166 1,175 1,187 1,197 1,215 1,292 1,415 1,417 1,447 1,449 1,470 1,487 1,520 1,556 1,605 1}
{4 1}
{4 1,241 1,292 1,417 1,448 1,497 1,556 1,605 1,642 1}
{1 1,4 1,40 1,92 1,94 1,147 1,175 1,184 1,272 1,278 1,292 1,322 1,342 1,354 1,417 1,430 1,454 1,512 1,527 1,556 1}
{4 1,24 1,81 1,91 1,99 1,111 1,137 1,148 1,165 1,166 1,168 1,175 1,184 1,187 1,197 1,215 1,237 1,242 1,244 1,276 1,278 1,292 1,314 1,325 1,337 1,363 1,364 1,367 1,375 1,378 1,408 1,415 1,445 1,448 1,450 1,471 1,506 1,509 1,520 1,531 1,533 1,556 1,591 1,596 1,597 1,608 1,609 1,614 1,627 1,647 1}
{4 1,18 1,160 1,175 1,198 1,417 1,556 1}
{4 1,16 1,48 1,59 1,85 1,110 1,152 1,165 1,175 1,193 1,212 1,296 1,503 1}
{4 1,9 1,36 1,53 1,69 1,89 1,101 1,128 1,160 1,175 1,229 1,241 1,254 1,257 1,292 1,314 1,329 1,339 1,343 1,367 1,388 1,415 1,422 1,425 1,427 1,472 1,473 1,522 1,555 1,556 1,560 1,627 1}
{4 1,160 1,175 1,292 1,393 1,415 1,579 1,594 1}
{4 1,103 1,110 1,155 1,175 1,252 1,335 1,597 1}
{2 1,4 1,12 1,32 1,84 1,89 1,90 1,175 1,215 1,270 1,292 1,309 1,326 1,417 1,425 1,456 1,556 1,563 1,617 1}
{4 1,27 1,63 1,81 1,155 1,166 1,175 1,195 1,196 1,197 1,212 1,215 1,292 1,374 1,463 1,464 1,471 1,486 1,494 1,519 1,542 1,556 1,597 1,612 1,647 1}
{4 1,153 1,160 1,175 1,184 1,195 1,208 1,210 1,212 1,215 1,229 1,232 1,237 1,257 1,292 1,314 1,395 1,432 1,449 1,556 1,612 1,647 1,648 1}
{292 1,417 1,556 1}
{4 1,48 1,59 1,85 1,103 1,110 1,166 1,175 1,215 1,292 1,556 1}
{4 1,48 1,85 1,89 1,175 1,184 1,260 1,417 1,556 1,605 1}
{4 1,48 1}
{4 1,417 1,556 1}
{4 1,37 1,48 1,59 1,85 1,110 1,124 1,153 1,155 1,184 1,197 1,198 1,202 1,212 1,241 1,292 1,294 1,296 1,332 1,437 1,581 1,612 1}
{4 1,48 1,59 1,85 1,89 1,99 1,155 1,160 1,182 1,184 1,292 1,482 1,556 1,603 1,605 1}
{4 1,153 1,160 1,292 1,367 1,382 1,639 1}
{4 1,22 1,29 1,63 1,77 1,89 1,137 1,148 1,160 1,165 1,166 1,168 1,175 1,182 1,184 1,187 1,197 1,212 1,215 1,223 1,240 1,242 1,244 1,278 1,282 1,292 1,294 1,304 1,316 1,318 1,320 1,359 1,360 1,367 1,382 1,393 1,408 1,428 1,447 1,448 1,449 1,450 1,454 1,480 1,500 1,506 1,542 1,545 1,556 1,586 1,591 1,599 1,608 1,624 1,632 1,634 1,636 1,647 1}
{4 1,18 1,151 1,160 1,175 1,215 1,272 1,292 1,450 1,471 1,542 1}
{4 1,36 1,48 1,59 1,85 1,212 1,260 1,292 1,431 1}
{4 1,11 1,15 1,151 1,153 1,166 1,173 1,175 1,184 1,197 1,215 1,272 1,273 1,276 1,278 1,292 1,294 1,315 1,322 1,350 1,382 1,393 1,397 1,413 1,415 1,442 1,447 1,466 1,486 1,542 1,553 1,556 1,566 1,624 1}
{4 1}
{4 1,48 1,110 1,153 1,175 1,180 1,184 1,278 1,292 1,367 1,475 1,523 1,566 1}
{4 1,14 1,73 1,272 1}
{4 1,5 1,46 1,66 1,74 1,89 1,116 1,129 1,175 1,176 1,211 1,237 1,292 1,294 1,307 1,320 1,332 1,365 1,378 1,404 1,415 1,424 1,427 1,488 1,523 1,537 1,556 1,639 1}
{4 1,165 1,173 1,175 1,184 1,216 1,242 1,278 1,292 1,320 1,376 1,614 1,632 1}
{4 1,89 1,160 1,166 1,175 1,197 1,215 1,278 1,292 1,329 1,415 1,420 1,502 1,504 1,520 1,522 1,525 1,618 1}
{4 1,166 1,175 1,187 1,197 1,215 1,292 1,325 1,350 1,415 1,417 1,525 1,556 1}
{4 1,89 1,107 1,114 1,175 1,215 1,292 1,311 1,315 1,324 1,329 1,331 1,367 1,450 1,457 1,504 1,514 1,526 1,566 1,609 1,627 1,642 1}
{4 1,99 1,153 1,195 1,288 1,417 1,556 1}
{4 1,222 1}
{4 1,175 1,292 1,459 1,542 1,567 1}
{4 1,110 1,152 1,229 1,290 1,314 1,347 1,354 1,367 1,382 1,463 1,608 1,647 1}
{4 1,89 1,104 1,292 1,349 1,552 1,633 1}
{4 1,116 1,175 1,197 1,292 1,320 1,325 1,393 1,413 1,415 1,417 1,448 1,471 1,556 1}
{4 1,175 1,292 1,314 1,510 1,556 1}
{4 1,54 1,89 1,107 1,174 1,175 1,190 1,215 1,292 1,351 1,367 1,414 1,450 1,463 1,525 1,531 1,533 1,556 1,571 1}
{4 1,76 1,82 1,85 1,175 1,190 1,242 1,263 1,278 1,292 1,294 1,382 1,386 1,393 1,441 1,447 1,485 1,500 1,523 1,556 1,596 1,611 1}
{4 1,104 1}
{4 1,53 1,82 1,99 1,116 1,137 1,153 1,166 1,168 1,175 1,184 1,190 1,197 1,215 1,246 1,278 1,283 1,288 1,292 1,304 1,308 1,320 1,350 1,367 1,370 1,378 1,415 1,445 1,447 1,471 1,499 1,506 1,533 1,542 1,545 1,594 1,605 1,614 1,615 1,622 1,624 1,627 1,632 1,635 1,647 1}
{4 1,160 1,175 1,257 1,292 1,367 1,498 1,598 1}
{4 1,52 1,82 1,165 1,166 1,168 1,175 1,184 1,197 1,200 1,215 1,250 1,254 1,278 1,292 1,294 1,304 1,305 1,325 1,363 1,393 1,447 1,501 1,542 1,556 1,596 1,599 1,614 1,615 1,632 1}
{4 1,250 1,294 1,417 1,556 1}
{4 1,81 1,82 1,160 1,165 1,166 1,180 1,184 1,187 1,196 1,197 1,212 1,215 1,237 1,242 1,292 1,359 1,367 1,382 1,542 1,556 1,596 1,614 1,647 1}
{2 1,4 1,8 1,12 1,14 1,15 1,19 1,32 1,57 1,75 1,82 1,89 1,94 1,98 1,99 1,104 1,137 1,151 1,160 1,166 1,174 1,175 1,176 1,183 1,184 1,187 1,215 1,250 1,253 1,257 1,259 1,272 1,278 1,283 1,292 1,314 1,320 1,325 1,350 1,364 1,365 1,367 1,380 1,382 1,387 1,393 1,415 1,423 1,442 1,447 1,448 1,449 1,456 1,457 1,469 1,486 1,520 1,525 1,533 1,542 1,545 1,553 1,556 1,557 1,566 1,574 1,624 1,627 1,645 1,648 1}
{4 1,64 1,110 1,138 1,227 1,327 1,444 1,451 1}
{4 1,59 1,85 1,110 1,113 1,417 1,438 1,556 1}
{4 1,99 1,153 1,175 1,292 1,363 1,368 1,449 1}
{4 1,38 1,74 1,81 1,89 1,94 1,104 1,109 1,127 1,160 1,166 1,175 1,184 1,187 1,195 1,212 1,215 1,257 1,278 1,292 1,294 1,367 1,378 1,393 1,405 1,411 1,415 1,426 1,449 1,471 1,498 1,647 1}
{4 1,48 1,59 1,85 1,153 1,212 1,292 1,395 1,447 1,496 1,556 1,570 1,583 1,605 1,634 1}
{4 1,146 1,591 1}
{4 1,417 1,556 1}
{1 1,2 1,4 1,15 1,32 1,34 1,82 1,84 1,153 1,175 1,183 1,184 1,228 1,260 1,272 1,278 1,292 1,294 1,320 1,332 1,393 1,447 1,448 1,537 1,551 1,596 1,624 1}
{4 1}
{4 1,292 1}
{4 1,175 1}
{4 1,160 1,166 1,175 1,215 1,292 1,567 1}
{4 1,66 1,69 1,195 1,271 1,292 1,298 1,314 1,422 1,450 1,515 1,522 1,648 1}
{4 1,175 1,513 1,562 1,564 1}
{4 1,18 1,19 1,30 1,53 1,160 1,184 1,195 1}
{4 1,79 1,444 1,559 1}
{4 1,8 1,32 1,48 1,59 1,80 1,84 1,85 1,89 1,98 1,110 1,137 1,142 1,155 1,160 1,166 1,175 1,180 1,184 1,197 1,212 1,215 1,237 1,257 1,269 1,272 1,278 1,284 1,289 1,292 1,294 1,333 1,393 1,395 1,479 1,489 1,523 1,534 1,566 1,574 1,596 1,601 1,602 1,605 1,612 1,617 1,635 1,645 1,647 1}
{4 1,15 1,160 1,170 1,184 1,278 1,292 1,322 1,367 1,382 1,483 1,511 1}
{4 1}
{4 1,137 1,160 1,175 1,184 1,292 1,296 1,367 1,382 1,449 1,510 1,556 1,609 1}
{4 1,110 1,123 1,212 1,353 1,366 1,367 1,390 1,395 1,433 1,463 1}
{4 1,28 1,160 1,175 1,329 1,417 1,533 1,556 1}
{4 1,84 1,175 1,270 1,349 1,371 1,447 1,491 1,522 1,574 1,617 1,645 1,648 1}
{4 1,103 1,123 1,175 1,206 1,242 1,367 1,433 1,556 1}
{4 1,89 1,160 1,201 1,242 1,292 1,387 1,542 1,556 1,605 1}
{4 1,38 1,84 1,89 1,93 1,101 1,110 1,160 1,175 1,260 1,268 1,455 1,460 1,481 1,482 1,483 1,522 1}
{2 1,4 1,32 1,96 1,151 1,175 1,182 1,232 1,292 1,447 1,463 1,645 1}
{4 1,48 1,85 1,89 1,110 1,153 1,160 1,175 1,292 1,417 1,438 1,439 1,462 1,523 1,533 1,556 1}
{4 1,59 1,415 1,525 1}
{4 1,69 1,175 1,194 1,238 1,283 1,341 1,582 1,646 1}
{4 1}
{4 1,48 1,59 1,85 1,110 1,160 1,175 1,221 1,292 1,296 1,446 1,556 1,605 1}
{4 1,263 1,292 1,417 1,556 1,611 1}
{4 1,59 1,85 1,110 1,153 1,175 1,177 1,197 1,212 1,215 1,238 1,292 1,364 1,367 1,395 1,446 1,501 1,542 1,567 1,605 1,615 1,622 1,643 1}
{4 1,89 1,160 1,175 1,215 1,292 1,370 1,393 1,449 1,471 1,557 1,642 1}
{4 1,59 1,69 1,85 1,110 1,132 1,148 1,153 1,175 1,197 1,291 1,292 1,360 1,366 1,367 1,417 1,476 1,556 1}
{4 1,18 1,50 1,135 1,175 1,197 1,198 1,206 1,237 1,287 1,292 1,367 1,395 1,417 1,556 1}
{4 1,59 1,85 1,110 1,137 1,146 1,184 1,186 1,187 1,215 1,269 1,278 1,283 1,292 1,294 1,304 1,318 1,320 1,364 1,374 1,417 1,450 1,470 1,471 1,520 1,535 1,556 1,599 1,604 1,624 1}
{4 1}
{4 1,89 1,153 1,175 1,187 1,271 1,292 1,294 1,297 1,314 1,320 1,393 1,412 1,415 1,447 1,450 1,514 1,542 1,545 1,548 1,556 1,595 1,605 1,624 1,641 1,643 1}
{4 1,319 1,347 1,367 1,648 1}
{4 1,124 1,153 1,166 1,168 1,175 1,184 1,186 1,187 1,278 1,283 1,288 1,314 1,320 1,363 1,413 1,496 1,504 1,506 1}
{4 1,85 1,160 1,170 1,283 1,437 1,446 1,447 1,448 1,450 1,556 1,605 1}
{4 1,292 1,466 1}
{4 1,89 1,123 1,174 1,235 1,288 1,292 1,294 1,367 1,463 1,533 1,556 1,624 1}
{4 1,140 1,175 1,203 1,204 1,210 1,215 1,219 1,229 1,236 1,237 1,292 1,312 1,333 1,361 1,364 1,372 1,374 1,453 1,511 1,518 1,520 1,523 1,533 1,589 1,627 1,642 1}
{4 1,69 1,85 1,182 1,195 1}
{4 1,48 1,59 1,85 1,89 1,92 1,160 1,175 1,178 1,180 1,208 1,242 1,278 1,292 1,346 1,362 1,449 1,489 1,505 1,508 1,542 1,556 1,600 1,604 1,612 1}
{4 1,153 1,166 1,175 1,212 1,237 1,292 1,408 1,417 1,471 1,556 1}
{2 1,4 1,11 1,32 1,52 1,70 1,82 1,89 1,94 1,95 1,126 1,137 1,151 1,160 1,175 1,178 1,184 1,185 1,186 1,199 1,216 1,229 1,241 1,242 1,272 1,274 1,278 1,287 1,292 1,309 1,320 1,329 1,337 1,340 1,363 1,364 1,367 1,382 1,396 1,397 1,405 1,409 1,415 1,417 1,447 1,450 1,477 1,499 1,520 1,553 1,556 1,557 1,574 1,577 1,591 1,605 1,609 1,615 1,617 1,624 1,627 1,642 1,645 1}
{2 1,4 1,12 1,14 1,32 1,84 1,175 1,272 1,292 1,456 1,556 1,617 1}
{4 1,48 1,59 1,68 1,72 1,85 1,91 1,92 1,110 1,113 1,146 1,153 1,165 1,175 1,184 1,198 1,212 1,242 1,257 1,276 1,278 1,292 1,300 1,331 1,341 1,367 1,410 1,462 1,523 1,591 1,596 1,612 1,614 1,627 1,638 1}
{2 1,4 1,5 1,6 1,48 1,72 1,84 1,89 1,94 1,99 1,107 1,110 1,113 1,122 1,129 1,152 1,175 1,180 1,183 1,184 1,189 1,193 1,220 1,261 1,292 1,294 1,314 1,338 1,342 1,367 1,403 1,404 1,438 1,439 1,450 1,462 1,463 1,486 1,488 1,517 1,527 1,540 1,556 1,591 1,596 1,642 1,648 1}
{4 1,87 1,175 1,184 1,223 1,252 1,304 1,316 1,365 1,522 1,523 1,556 1,611 1,616 1}
{4 1,63 1,81 1,148 1,166 1,170 1,175 1,187 1,215 1,237 1,292 1,415 1,447 1,454 1,535 1,556 1,612 1,633 1,647 1}
{4 1}
{4 1,288 1,292 1,338 1,482 1,605 1}
{4 1,110 1,153 1,381 1,395 1,417 1,556 1,582 1,604 1}
{4 1,18 1,57 1,58 1,59 1,91 1,95 1,128 1,137 1,155 1,160 1,175 1,182 1,212 1,214 1,242 1,292 1,294 1,314 1,359 1,361 1,380 1,382 1,391 1,402 1,443 1,468 1,501 1,522 1,611 1,624 1,627 1,640 1}
{4 1}
{4 1,367 1,542 1}
{4 1,99 1,175 1,220 1,321 1,367 1,378 1,387 1,394 1,449 1,450 1}
{4 1,18 1,48 1,175 1,184 1,229 1,241 1,367 1,374 1}
{4 1,59 1,68 1,69 1,85 1,110 1,153 1,166 1,175 1,292 1,567 1}
{4 1,61 1,62 1,150 1,160 1,166 1,170 1,175 1,292 1,296 1,381 1,393 1,448 1,450 1,471 1}
{4 1,15 1,32 1,70 1,82 1,137 1,165 1,166 1,175 1,184 1,187 1,194 1,197 1,215 1,226 1,241 1,257 1,272 1,278 1,292 1,294 1,304 1,305 1,325 1,344 1,359 1,360 1,393 1,415 1,430 1,446 1,447 1,448 1,450 1,519 1,591 1,614 1}
{4 1,175 1,184 1,292 1,304 1,367 1,382 1,482 1,596 1}
{2 1,4 1,15 1,22 1,69 1,82 1,89 1,99 1,111 1,118 1,137 1,146 1,159 1,165 1,166 1,168 1,175 1,180 1,184 1,197 1,209 1,212 1,215 1,216 1,229 1,241 1,258 1,274 1,278 1,292 1,294 1,313 1,317 1,318 1,320 1,325 1,350 1,363 1,367 1,382 1,393 1,415 1,447 1,448 1,450 1,466 1,469 1,486 1,493 1,497 1,500 1,523 1,542 1,553 1,554 1,566 1,579 1,614 1,615 1,635 1,640 1}
{4 1,18 1,76 1,200 1,212 1,228 1,267 1,278 1,292 1,304 1,402 1,552 1,614 1,630 1}
{2 1,4 1,50 1,120 1,137 1,143 1,145 1,146 1,168 1,175 1,183 1,197 1,198 1,199 1,215 1,237 1,247 1,258 1,292 1,294 1,295 1,300 1,320 1,323 1,364 1,374 1,378 1,393 1,395 1,408 1,428 1,441 1,463 1,471 1,474 1,480 1,499 1,500 1,501 1,506 1,520 1,542 1,554 1,579 1,586 1,590 1,591 1,610 1,612 1,627 1}
{4 1,292 1,349 1,367 1}
{4 1,417 1,475 1,556 1}
{4 1,151 1,272 1,417 1,556 1}
{4 1,98 1,111 1,140 1,166 1,168 1,175 1,197 1,215 1,237 1,278 1,292 1,325 1,362 1,393 1,415 1,447 1,528 1,542 1,556 1,608 1}
{3 1,4 1,72 1,82 1,89 1,116 1,119 1,141 1,144 1,146 1,160 1,162 1,175 1,179 1,180 1,181 1,192 1,203 1,204 1,216 1,237 1,267 1,292 1,294 1,349 1,352 1,360 1,370 1,372 1,402 1,438 1,447 1,463 1,494 1,522 1,556 1,575 1,612 1,620 1,624 1}
{4 1,137 1,144 1,146 1,166 1,175 1,187 1,197 1,215 1,238 1,252 1,292 1,393 1,395 1,415 1,446 1,471 1,523 1,542 1,556 1,565 1,591 1}
{4 1,175 1,195 1,292 1,321 1,345 1}
{4 1,38 1,160 1,292 1}
{4 1,69 1,150 1,166 1,175 1,197 1,215 1,292 1,386 1,415 1,417 1,449 1,450 1,471 1,556 1}
{4 1,48 1,60 1,82 1,89 1,114 1,116 1,117 1,123 1,126 1,128 1,158 1,175 1,184 1,186 1,190 1,199 1,216 1,234 1,238 1,292 1,294 1,296 1,300 1,315 1,320 1,350 1,360 1,365 1,366 1,367 1,395 1,414 1,415 1,417 1,433 1,440 1,442 1,447 1,448 1,449 1,469 1,472 1,476 1,500 1,501 1,523 1,526 1,527 1,542 1,550 1,556 1,566 1,609 1,622 1,624 1,625 1}
{4 1,38 1,76 1,89 1,106 1,160 1,165 1,175 1,184 1,266 1,269 1,278 1,292 1,320 1,332 1,350 1,367 1,415 1,447 1,448 1,555 1,556 1}
{4 1,48 1,59 1,85 1,110 1,175 1,523 1}
{4 1,33 1,36 1,48 1,75 1,82 1,89 1,107 1,117 1,137 1,166 1,175 1,186 1,195 1,197 1,212 1,215 1,246 1,278 1,283 1,285 1,292 1,294 1,310 1,311 1,312 1,325 1,350 1,367 1,447 1,448 1,471 1,499 1,556 1,558 1,566 1,567 1,614 1,628 1,645 1}
{4 1,292 1,528 1,542 1,556 1}
{4 1,18 1,48 1,85 1,175 1,292 1,489 1}
{4 1,155 1,177 1,180 1,292 1,402 1,403 1,417 1,502 1,516 1,556 1}
{4 1,160 1,175 1,292 1,415 1,470 1,525 1}
{4 1,15 1,33 1,75 1,82 1,94 1,95 1,110 1,160 1,175 1,179 1,184 1,215 1,231 1,238 1,271 1,278 1,282 1,292 1,294 1,316 1,325 1,360 1,362 1,364 1,367 1,375 1,438 1,439 1,447 1,462 1,471 1,493 1,502 1,520 1,542 1,648 1}
{4 1,292 1,376 1,449 1}
{4 1,20 1,85 1,89 1,117 1,166 1,175 1,187 1,197 1,212 1,215 1,237 1,242 1,251 1,273 1,292 1,325 1,350 1,393 1,415 1,446 1,447 1,448 1,450 1,466 1,469 1,499 1,520 1,556 1,566 1,605 1,647 1}
{4 1,116 1,144 1,148 1,175 1,252 1,292 1,300 1,415 1,474 1,556 1,589 1,591 1}
{4 1,160 1,175 1,292 1,642 1}
{4 1,85 1,215 1,292 1,417 1,522 1,556 1}
{4 1,48 1,89 1,147 1,160 1,166 1,175 1,195 1,207 1,212 1,215 1,237 1,257 1,292 1,314 1,395 1,408 1,413 1,415 1,425 1,449 1,450 1,458 1,463 1,498 1,522 1,525 1,556 1,565 1,605 1,627 1,647 1}
{4 1,28 1,38 1,89 1,91 1,101 1,123 1,137 1,153 1,160 1,166 1,175 1,184 1,197 1,215 1,292 1,360 1,367 1,415 1,417 1,447 1,450 1,471 1,516 1,525 1,556 1,605 1,624 1}
{4 1,270 1,292 1,299 1,363 1,446 1}
{4 1,417 1,533 1}
{4 1,527 1}
{4 1,71 1,128 1,129 1,164 1,175 1,218 1,242 1,245 1,270 1,378 1,387 1,393 1,447 1,448 1,472 1,549 1}
{4 1,417 1,556 1}
{4 1,38 1,80 1,82 1,89 1,137 1,160 1,166 1,175 1,183 1,184 1,187 1,190 1,197 1,212 1,215 1,218 1,229 1,237 1,278 1,283 1,292 1,294 1,305 1,320 1,350 1,415 1,417 1,431 1,446 1,447 1,448 1,449 1,450 1,456 1,459 1,469 1,470 1,471 1,486 1,501 1,525 1,535 1,544 1,556 1,566 1,567 1,599 1,605 1,610 1,615 1,627 1,647 1}
{4 1,38 1,89 1,106 1,160 1,175 1,184 1,257 1,292 1,415 1,447 1,458 1,498 1,556 1}
{4 1,92 1,94 1,104 1,106 1,166 1,168 1,175 1,184 1,196 1,197 1,199 1,208 1,212 1,215 1,292 1,294 1,342 1,348 1,350 1,393 1,395 1,412 1,421 1,429 1,448 1,454 1,475 1,507 1,556 1,565 1,603 1,613 1,626 1}
{4 1,19 1,89 1,99 1,101 1,107 1,111 1,116 1,122 1,160 1,165 1,166 1,168 1,175 1,184 1,190 1,215 1,229 1,242 1,246 1,276 1,278 1,285 1,292 1,294 1,305 1,320 1,325 1,328 1,358 1,415 1,446 1,448 1,506 1,528 1,556 1,596 1,599 1,622 1,624 1,632 1,642 1,647 1}
{4 1,85 1,99 1,153 1,175 1,184 1,229 1,242 1,288 1,320 1,533 1,596 1}
{4 1,605 1}
{4 1,52 1,76 1,95 1,97 1,116 1,126 1,165 1,168 1,207 1,208 1,210 1,212 1,215 1,241 1,242 1,254 1,279 1,283 1,292 1,294 1,344 1,346 1,348 1,350 1,354 1,359 1,361 1,365 1,393 1,429 1,463 1,467 1,468 1,505 1,506 1,519 1,556 1,561 1,564 1,573 1,618 1,644 1}
{4 1,292 1}
{4 1,15 1,22 1,52 1,60 1,81 1,82 1,89 1,100 1,116 1,119 1,121 1,141 1,143 1,144 1,145 1,146 1,155 1,159 1,162 1,165 1,175 1,179 1,181 1,192 1,193 1,196 1,199 1,203 1,204 1,215 1,237 1,246 1,247 1,252 1,278 1,291 1,292 1,294 1,300 1,312 1,325 1,344 1,350 1,351 1,352 1,357 1,361 1,362 1,365 1,399 1,415 1,436 1,438 1,446 1,447 1,450 1,463 1,471 1,490 1,499 1,500 1,501 1,512 1,523 1,533 1,542 1,545 1,546 1,556 1,566 1,581 1,585 1,591 1,605 1,613 1,622 1,626 1,629 1,630 1,643 1,644 1}
{4 1,305 1,417 1,556 1,632 1}
{4 1,17 1,175 1,264 1,319 1,395 1}
{4 1,167 1,168 1,179 1,353 1}
{4 1,579 1,622 1}
{4 1,15 1,32 1,99 1,148 1,165 1,166 1,168 1,175 1,184 1,186 1,187 1,197 1,215 1,237 1,242 1,267 1,278 1,292 1,305 1,310 1,324 1,350 1,363 1,364 1,367 1,393 1,408 1,413 1,415 1,447 1,450 1,486 1,493 1,504 1,520 1,535 1,542 1,566 1,608 1,612 1,627 1}
{4 1,39 1,48 1,59 1,85 1,89 1,137 1,160 1,175 1,212 1,292 1,371 1,489 1,523 1,556 1,605 1}
{4 1,5 1,6 1,7 1,13 1,21 1,41 1,66 1,89 1,94 1,104 1,128 1,152 1,157 1,191 1,200 1,205 1,216 1,218 1,220 1,225 1,230 1,231 1,248 1,259 1,262 1,266 1,288 1,292 1,294 1,304 1,314 1,322 1,351 1,367 1,374 1,398 1,404 1,442 1,460 1,465 1,481 1,482 1,488 1,501 1,523 1,533 1,542 1,556 1,576 1,623 1,624 1,631 1}
{4 1,46 1,69 1,89 1,160 1,200 1,254 1,292 1,316 1,472 1,522 1,525 1,552 1}
{4 1,85 1,123 1,153 1,166 1,175 1,292 1,321 1,367 1,433 1}
{4 1,26 1,32 1,48 1,60 1,63 1,76 1,80 1,81 1,89 1,91 1,98 1,107 1,116 1,117 1,151 1,166 1,175 1,183 1,184 1,187 1,190 1,192 1,195 1,196 1,197 1,199 1,203 1,208 1,210 1,212 1,215 1,237 1,242 1,247 1,249 1,252 1,265 1,272 1,275 1,278 1,292 1,294 1,297 1,300 1,304 1,333 1,346 1,350 1,359 1,360 1,361 1,364 1,365 1,372 1,382 1,393 1,395 1,408 1,415 1,434 1,435 1,441 1,447 1,448 1,467 1,469 1,470 1,471 1,475 1,499 1,501 1,509 1,512 1,520 1,525 1,535 1,545 1,550 1,556 1,565 1,567 1,579 1,585 1,591 1,601 1,605 1,612 1,616 1,626 1,631 1,642 1,647 1}
{4 1}
{4 1,75 1,80 1,82 1,89 1,153 1,166 1,175 1,197 1,210 1,212 1,215 1,292 1,313 1,322 1,325 1,393 1,415 1,449 1,450 1,471 1,535 1,556 1,605 1,647 1}
{4 1,5 1,6 1,10 1,48 1,50 1,66 1,67 1,82 1,84 1,94 1,151 1,160 1,166 1,168 1,175 1,184 1,189 1,197 1,213 1,214 1,215 1,216 1,230 1,254 1,261 1,269 1,272 1,292 1,294 1,304 1,314 1,329 1,337 1,382 1,393 1,404 1,412 1,426 1,447 1,450 1,452 1,453 1,454 1,488 1,503 1,506 1,522 1,545 1,551 1,553 1,556 1,593 1,595 1,614 1,615 1,627 1,632 1,648 1}
{4 1,54 1,160 1,175 1,292 1}
{4 1,443 1}
{4 1,146 1,175 1,320 1,393 1,417 1,542 1,556 1}
{4 1,49 1,89 1,119 1,151 1,155 1,166 1,168 1,175 1,212 1,215 1,216 1,291 1,292 1,294 1,304 1,350 1,365 1,367 1,415 1,434 1,447 1,522 1,525 1,542 1,556 1,591 1,605 1,612 1,614 1,631 1,632 1,648 1}
{4 1,59 1,85 1,110 1,148 1,153 1,160 1,175 1,184 1,187 1,197 1,212 1,215 1,237 1,241 1,278 1,292 1,320 1,330 1,345 1,364 1,367 1,382 1,395 1,408 1,520 1,556 1,565 1,624 1}
{2 1,4 1,15 1,82 1,99 1,107 1,143 1,165 1,166 1,173 1,175 1,197 1,202 1,211 1,215 1,251 1,254 1,272 1,278 1,283 1,292 1,312 1,320 1,382 1,393 1,415 1,416 1,418 1,419 1,441 1,447 1,448 1,450 1,459 1,484 1,486 1,523 1,542 1,544 1,549 1,553 1,566 1,594 1,624 1}
{4 1,79 1,175 1,216 1,292 1,327 1,516 1,556 1}
{4 1,37 1,59 1,80 1,81 1,85 1,89 1,110 1,137 1,148 1,155 1,161 1,163 1,166 1,177 1,180 1,187 1,196 1,197 1,212 1,215 1,237 1,241 1,278 1,279 1,283 1,292 1,296 1,304 1,320 1,332 1,345 1,361 1,364 1,372 1,374 1,383 1,395 1,406 1,408 1,415 1,442 1,448 1,463 1,464 1,470 1,471 1,489 1,494 1,516 1,520 1,524 1,530 1,534 1,535 1,545 1,565 1,567 1,581 1,591 1,596 1,602 1,612 1,615 1,647 1}
{4 1,45 1,68 1,69 1,157 1,160 1,170 1,175 1,184 1,187 1,292 1,294 1,297 1,317 1,318 1,363 1,367 1,415 1,470 1,511 1,527 1,535 1,553 1,599 1,603 1,614 1,615 1,642 1}
{4 1,175 1,292 1,414 1,415 1,425 1,556 1,560 1}
{4 1,292 1,302 1,516 1,523 1,556 1}
{4 1,89 1,160 1,292 1,449 1}
{4 1,175 1,292 1,381 1,408 1,415 1,417 1,446 1,447 1,449 1,450 1,556 1}
{4 1,43 1,50 1,66 1,69 1,82 1,86 1,97 1,116 1,137 1,149 1,150 1,151 1,160 1,166 1,170 1,175 1,197 1,215 1,240 1,241 1,242 1,244 1,254 1,272 1,278 1,279 1,283 1,287 1,289 1,292 1,294 1,303 1,314 1,319 1,320 1,348 1,359 1,361 1,377 1,393 1,415 1,417 1,440 1,447 1,448 1,449 1,450 1,467 1,471 1,486 1,522 1,523 1,542 1,549 1,553 1,554 1,556 1,566 1,570 1,597 1,604 1,615 1,620 1,621 1,624 1,625 1,628 1,632 1}
{4 1,137 1,160 1,175 1,184 1,278 1,292 1,367 1,417 1,449 1,556 1,605 1}
{4 1,81 1,215 1,292 1,417 1,556 1}
{4 1,48 1,292 1,417 1,542 1,556 1}
{4 1,48 1,59 1,85 1,160 1,175 1,184 1,212 1,292 1,296 1,395 1,489 1,523 1,542 1,602 1,605 1}
{4 1,115 1,155 1,195 1,221 1}
{4 1,15 1,31 1,75 1,82 1,83 1,111 1,160 1,166 1,171 1,175 1,183 1,215 1,267 1,283 1,292 1,294 1,310 1,325 1,344 1,367 1,393 1,415 1,417 1,421 1,447 1,448 1,467 1,469 1,486 1,499 1,532 1,542 1,556 1,566 1,613 1,626 1}
{4 1,85 1,155 1,292 1,308 1,319 1}
{4 1,36 1,89 1,175 1,292 1,360 1,463 1}
{4 1,82 1,116 1,283 1,292 1,393 1,463 1,502 1,522 1,542 1}
{4 1,16 1,153 1,175 1,226 1,260 1,384 1,607 1}
{4 1,382 1,417 1,556 1}
{4 1,89 1,175 1,292 1,311 1,447 1,448 1,624 1}
{2 1,4 1,8 1,82 1,111 1,151 1,160 1,166 1,167 1,175 1,197 1,238 1,267 1,272 1,273 1,276 1,285 1,292 1,382 1,393 1,415 1,430 1,447 1,449 1,501 1,503 1,547 1,554 1,622 1,647 1}
{4 1,48 1,59 1,85 1,89 1,110 1,160 1,165 1,175 1,186 1,212 1,215 1,269 1,292 1,296 1,321 1,351 1,415 1,417 1,433 1,448 1,479 1,489 1,542 1,556 1,570 1,605 1}
{4 1,6 1,13 1,53 1,72 1,89 1,92 1,94 1,96 1,99 1,104 1,107 1,116 1,137 1,148 1,153 1,165 1,166 1,175 1,178 1,184 1,187 1,189 1,194 1,195 1,197 1,202 1,210 1,212 1,215 1,216 1,229 1,230 1,241 1,266 1,278 1,292 1,293 1,294 1,302 1,303 1,307 1,315 1,317 1,320 1,366 1,367 1,370 1,382 1,393 1,403 1,404 1,408 1,415 1,437 1,442 1,448 1,449 1,450 1,466 1,470 1,482 1,487 1,488 1,501 1,512 1,514 1,520 1,523 1,531 1,533 1,535 1,549 1,556 1,585 1,589 1,591 1,593 1,596 1,601 1,606 1,614 1,624 1,625 1,631 1,648 1}
{4 1,104 1,166 1,184 1,215 1,278 1,292 1,304 1,367 1,386 1,471 1,556 1}
{4 1,89 1,118 1,137 1,175 1,184 1,278 1,292 1,359 1,370 1,415 1,477 1,492 1}
{4 1,175 1,527 1,576 1}
{4 1,175 1,270 1,292 1,306 1,417 1,556 1}
{4 1,50 1,135 1,137 1,140 1,153 1,160 1,175 1,179 1,184 1,242 1,276 1,278 1,283 1,292 1,308 1,320 1,330 1,367 1,370 1,382 1,393 1,434 1,542 1,549 1,589 1,614 1,624 1,647 1}
{4 1,22 1,32 1,91 1,101 1,116 1,137 1,146 1,160 1,165 1,175 1,184 1,197 1,199 1,241 1,242 1,252 1,278 1,292 1,294 1,300 1,359 1,360 1,361 1,365 1,415 1,441 1,447 1,448 1,500 1,501 1,513 1,523 1,558 1,562 1,586 1,591 1,596 1,608 1,614 1,619 1,621 1,631 1,636 1}
{4 1,89 1,157 1,170 1,175 1,184 1,242 1,278 1,292 1,294 1,304 1,305 1,340 1,395 1,415 1,446 1,447 1,505 1,559 1,612 1,614 1,632 1,642 1}
{4 1,17 1,69 1,99 1,137 1,149 1,160 1,166 1,170 1,175 1,184 1,187 1,197 1,199 1,210 1,212 1,215 1,241 1,271 1,292 1,294 1,367 1,382 1,395 1,408 1,415 1,447 1,448 1,449 1,450 1,471 1,483 1,494 1,520 1,522 1,611 1,647 1}
{4 1,14 1,32 1,85 1,89 1,110 1,115 1,137 1,170 1,175 1,184 1,201 1,212 1,215 1,241 1,292 1,367 1,415 1,446 1,447 1,450 1,542 1,591 1}
{4 1,19 1,41 1,89 1,105 1,144 1,157 1,160 1,166 1,169 1,175 1,184 1,197 1,210 1,212 1,215 1,223 1,237 1,254 1,257 1,258 1,278 1,292 1,293 1,297 1,342 1,382 1,389 1,395 1,414 1,425 1,429 1,450 1,474 1,486 1,498 1,499 1,501 1,527 1,540 1,586 1,622 1,627 1,642 1,647 1}
{4 1,59 1,92 1,175 1,292 1,302 1,395 1,523 1}
{4 1,89 1,160 1,166 1,197 1,221 1,283 1,292 1,339 1,449 1,463 1,481 1,556 1,642 1}
{4 1,175 1,180 1,206 1,258 1,292 1,308 1,332 1,463 1,478 1,485 1,492 1,522 1,542 1}
{4 1}
{4 1,29 1,75 1,80 1,111 1,137 1,153 1,166 1,168 1,175 1,184 1,197 1,215 1,229 1,237 1,242 1,249 1,250 1,278 1,292 1,294 1,299 1,304 1,305 1,360 1,368 1,393 1,434 1,447 1,495 1,542 1,545 1,601 1,614 1,632 1}
{4 1}
{4 1,99 1,292 1}
{4 1,75 1,152 1,160 1,166 1,175 1,223 1,252 1,292 1,331 1,367 1,415 1,417 1,418 1,448 1,526 1,542 1,556 1}
{4 1,39 1,48 1,59 1,80 1,85 1,88 1,101 1,103 1,110 1,175 1,184 1,185 1,212 1,221 1,264 1,286 1,364 1,383 1,395 1,489 1,520 1,523 1,530 1,535 1,560 1,569 1,582 1,597 1,602 1,646 1}
{4 1,48 1,85 1,175 1,187 1,292 1,384 1,446 1,602 1}
{4 1,115 1,242 1,270 1,367 1,370 1,387 1,522 1,525 1}
{4 1,23 1,175 1,278 1,292 1,363 1,547 1,556 1,605 1}
{4 1,210 1,292 1,417 1,556 1}
{4 1,351 1,370 1}
{4 1,81 1,87 1,129 1,153 1,166 1,170 1,175 1,197 1,212 1,215 1,292 1,293 1,332 1,350 1,367 1,392 1,395 1,418 1,431 1,449 1,526 1,542 1,556 1}
{4 1,60 1,89 1,94 1,101 1,160 1,175 1,292 1}
{4 1,10 1,41 1,51 1,66 1,84 1,89 1,96 1,129 1,164 1,175 1,189 1,215 1,237 1,238 1,266 1,268 1,288 1,292 1,307 1,314 1,364 1,367 1,412 1,415 1,447 1,449 1,451 1,520 1,522 1,556 1,563 1,588 1,648 1}
{4 1,36 1,122 1,123 1,129 1,175 1,199 1,292 1,294 1,320 1,390 1,393 1,415 1,450 1,501 1,544 1,556 1,605 1,624 1}
{1 1,4 1,31 1,294 1,537 1}
{4 1,29 1,53 1,75 1,82 1,86 1,89 1,91 1,92 1,99 1,110 1,165 1,168 1,175 1,180 1,184 1,242 1,278 1,288 1,292 1,294 1,304 1,305 1,350 1,365 1,367 1,378 1,382 1,391 1,393 1,415 1,416 1,444 1,448 1,467 1,506 1,545 1,589 1,591 1,596 1,624 1,627 1,632 1}
{4 1,166 1,215 1,417 1,556 1}
{4 1,69 1,89 1,137 1,150 1,160 1,166 1,175 1,184 1,215 1,278 1,283 1,292 1,318 1,321 1,367 1,414 1,415 1,449 1,522 1,525 1,556 1}
{4 1,97 1,129 1,131 1,226 1,292 1,417 1,556 1,560 1}
{4 1}
{2 1,4 1,14 1,15 1,22 1,32 1,59 1,70 1,82 1,85 1,91 1,118 1,136 1,137 1,148 1,150 1,151 1,165 1,166 1,170 1,175 1,176 1,183 1,184 1,190 1,215 1,216 1,241 1,242 1,252 1,254 1,272 1,278 1,279 1,281 1,283 1,292 1,304 1,319 1,359 1,360 1,361 1,363 1,367 1,377 1,393 1,395 1,415 1,441 1,448 1,449 1,450 1,454 1,456 1,459 1,486 1,499 1,500 1,501 1,525 1,542 1,553 1,562 1,564 1,586 1,591 1,594 1,596 1,609 1,614 1,617 1,619 1,621 1,622 1}
{4 1,26 1,89 1,127 1,160 1,175 1,233 1,254 1,256 1,270 1,292 1,314 1,315 1,378 1,425 1,498 1,500 1,501 1,554 1,556 1,575 1}
{4 1,48 1,59 1,69 1,85 1,110 1,113 1,175 1,272 1,296 1,438 1,439 1,479 1,489 1,523 1,533 1,556 1}
{4 1,48 1,85 1,123 1,160 1,257 1,292 1}
{4 1,294 1,533 1}
{4 1,51 1,66 1,84 1,125 1,156 1,164 1,175 1,220 1,245 1,292 1,329 1,336 1,401 1,417 1,462 1,504 1,522 1,533 1,542 1,556 1,581 1,648 1}
{4 1,292 1,435 1,475 1,524 1}
{4 1}
{4 1,83 1,542 1,642 1}
{4 1,23 1,26 1,48 1,59 1,72 1,124 1,131 1,148 1,153 1,160 1,166 1,175 1,180 1,184 1,212 1,215 1,226 1,237 1,241 1,278 1,292 1,364 1,367 1,408 1,450 1,647 1}
{4 1,501 1}
{4 1,292 1,367 1}
{4 1,26 1,175 1,292 1,308 1,371 1,395 1,510 1,522 1}
{4 1,6 1,13 1,55 1,58 1,90 1,128 1,129 1,151 1,174 1,220 1,235 1,268 1,270 1,292 1,314 1,326 1,335 1,422 1,465 1,522 1,551 1,578 1,648 1}
{4 1,24 1,82 1,104 1,106 1,148 1,165 1,166 1,175 1,184 1,187 1,192 1,197 1,215 1,237 1,278 1,292 1,318 1,320 1,364 1,367 1,382 1,393 1,395 1,402 1,408 1,450 1,471 1,493 1,520 1,533 1,535 1,542 1,556 1,565 1,614 1,624 1,635 1,647 1}
{4 1,37 1,48 1,59 1,85 1,88 1,92 1,94 1,110 1,131 1,153 1,160 1,175 1,198 1,212 1,294 1,296 1,322 1,379 1,383 1,386 1,395 1,402 1,454 1,479 1,523 1,556 1,559 1,602 1,638 1}
{4 1,91 1,165 1,175 1,184 1,214 1,278 1,292 1,326 1,363 1,509 1,639 1,642 1}
{4 1,175 1,184 1,278 1,350 1,365 1,367 1,382 1,417 1,447 1,448 1,450 1,456 1,486 1,556 1,624 1}
{4 1,48 1,59 1,85 1,106 1,110 1,153 1,175 1,212 1,237 1,292 1}
{4 1,89 1,99 1,101 1,107 1,160 1,165 1,175 1,184 1,195 1,278 1,292 1,294 1,304 1,325 1,367 1,382 1,415 1,471 1,499 1,542 1,543 1,566 1,569 1,596 1,605 1,614 1,642 1}
{4 1,292 1}
{4 1,48 1,59 1,85 1,110 1,153 1,175 1,292 1,395 1,400 1,439 1,462 1,489 1,523 1,556 1,570 1}
{4 1,12 1,45 1,80 1,160 1,166 1,175 1,187 1,197 1,212 1,215 1,223 1,237 1,292 1,313 1,364 1,393 1,408 1,415 1,417 1,470 1,471 1,520 1,535 1,556 1}
{4 1,63 1,81 1,88 1,89 1,99 1,137 1,166 1,184 1,195 1,196 1,197 1,199 1,203 1,212 1,215 1,237 1,278 1,285 1,292 1,294 1,369 1,374 1,408 1,415 1,417 1,450 1,455 1,463 1,471 1,486 1,494 1,515 1,525 1,542 1,556 1,584 1,605 1,616 1,647 1}
{4 1,26 1,89 1,160 1,164 1,166 1,175 1,178 1,237 1,292 1,446 1,522 1,547 1,556 1}
{0 1,1 1,4 1,15 1,20 1,50 1,89 1,94 1,166 1,187 1,215 1,292 1,325 1,342 1,365 1,417 1,447 1,454 1,469 1,486 1,556 1,566 1,647 1}
{417 1,556 1}
{4 1,321 1,367 1,417 1,556 1}
{4 1,66 1,80 1,89 1,160 1,166 1,187 1,197 1,205 1,220 1,248 1,292 1,294 1,303 1,398 1,415 1,466 1,512 1,522 1,525 1,556 1,618 1}
{4 1,175 1,417 1,556 1}
{4 1,48 1,53 1,59 1,85 1,175 1,187 1,288 1,292 1,329 1,367 1,393 1,463 1,542 1,583 1,604 1}
{0 1,1 1,2 1,4 1,15 1,32 1,89 1,107 1,135 1,137 1,153 1,160 1,175 1,184 1,254 1,259 1,267 1,272 1,278 1,283 1,292 1,294 1,312 1,317 1,344 1,393 1,415 1,447 1,448 1,486 1,521 1,533 1,542 1,596 1,623 1,642 1}
{4 1,48 1,59 1,85 1,110 1,113 1,175 1,195 1,212 1,292 1,296 1,345 1,366 1,379 1,382 1,400 1,410 1,463 1,522 1,556 1,580 1,605 1}
{4 1,160 1,175 1,292 1}
{4 1,160 1,170 1,175 1,292 1,320 1,417 1,447 1,448 1,542 1,556 1}
{4 1,135 1}
{4 1,12 1,53 1,84 1,89 1,116 1,127 1,129 1,151 1,152 1,189 1,233 1,253 1,254 1,256 1,270 1,272 1,292 1,294 1,307 1,314 1,350 1,367 1,374 1,378 1,404 1,425 1,481 1,482 1,488 1,501 1,522 1,533 1,554 1,565 1,571 1,586 1,598 1,648 1}
{4 1,36 1,63 1,76 1,89 1,119 1,142 1,146 1,162 1,166 1,175 1,179 1,184 1,187 1,192 1,197 1,198 1,212 1,215 1,237 1,292 1,296 1,300 1,367 1,370 1,374 1,399 1,430 1,450 1,471 1,523 1,533 1,556 1,590 1,591 1,612 1,629 1,648 1}
{4 1,44 1,69 1,85 1,89 1,95 1,153 1,160 1,292 1,299 1,382 1,415 1,449 1,460 1,522 1,604 1,605 1}
{4 1,9 1,62 1,66 1,69 1,71 1,75 1,99 1,103 1,128 1,129 1,160 1,164 1,166 1,180 1,220 1,238 1,271 1,283 1,292 1,308 1,335 1,339 1,378 1,381 1,387 1,393 1,394 1,422 1,424 1,427 1,449 1,472 1,473 1,481 1,491 1,495 1,522 1,548 1,600 1,629 1,641 1,648 1}
{2 1,4 1,11 1,34 1,53 1,89 1,104 1,129 1,151 1,189 1,200 1,262 1,267 1,272 1,292 1,307 1,321 1,329 1,404 1,466 1,488 1,551 1,553 1,556 1}
{4 1,48 1,59 1,85 1,110 1,160 1,175 1,260 1,292 1,301 1,467 1,556 1}
{4 1,89 1,99 1,107 1,130 1,137 1,175 1,220 1,242 1,292 1,294 1,314 1,320 1,360 1,363 1,378 1,394 1,415 1,449 1,471 1,556 1,591 1,596 1,625 1}
{4 1,48 1,59 1,69 1,85 1,137 1,284 1,292 1,308 1,447 1,582 1}
{4 1}
{4 1,25 1,65 1,73 1,84 1,89 1,152 1,175 1,232 1,292 1,306 1,314 1,386 1,405 1,415 1,417 1,421 1,425 1,449 1,506 1,525 1,556 1}
{4 1}
{4 1,66 1,67 1,89 1,129 1,220 1,225 1,292 1,298 1,314 1,326 1,417 1,422 1,426 1,427 1,449 1,482 1,522 1,551 1,556 1,648 1}
{4 1,292 1,293 1}
{4 1,22 1,59 1,63 1,68 1,72 1,81 1,82 1,89 1,109 1,119 1,155 1,175 1,184 1,196 1,197 1,212 1,216 1,237 1,242 1,292 1,294 1,332 1,350 1,364 1,369 1,370 1,402 1,448 1,449 1,471 1,494 1,525 1,534 1,542 1,556 1,565 1,624 1}
{4 1,85 1}
{4 1,89 1,166 1,168 1,175 1,210 1,215 1,252 1,292 1,395 1,415 1,417 1,447 1,450 1,542 1,556 1,605 1}
{4 1,292 1,395 1}
{4 1,137 1,175 1,197 1,200 1,268 1,292 1,296 1,307 1,350 1,367 1,393 1,415 1,426 1,447 1,469 1,482 1,522 1,560 1}
{4 1,417 1,556 1}
{4 1,39 1,48 1,85 1,110 1,155 1,221 1,308 1,523 1}
{4 1,69 1,114 1,118 1,123 1,175 1,310 1,321 1,367 1,396 1,399 1,526 1}
{4 1,199 1,292 1,365 1,612 1}
{4 1,53 1,89 1,128 1,129 1,199 1,245 1,252 1,277 1,292 1,294 1,307 1,320 1,338 1,365 1,367 1,415 1,426 1,447 1,448 1,465 1,480 1,501 1,556 1,627 1}
{4 1,175 1,184 1,278 1,292 1,367 1,393 1,533 1,556 1,596 1,614 1}
{4 1,61 1,64 1,166 1,221 1,292 1,448 1,450 1,522 1}
{4 1,417 1,522 1,556 1}
{4 1,155 1}
{2 1,4 1,15 1,25 1,26 1,41 1,59 1,76 1,82 1,92 1,93 1,94 1,97 1,116 1,137 1,139 1,153 1,160 1,165 1,169 1,175 1,183 1,187 1,193 1,207 1,215 1,237 1,239 1,241 1,242 1,252 1,254 1,255 1,274 1,278 1,292 1,294 1,304 1,313 1,344 1,347 1,348 1,350 1,360 1,361 1,364 1,367 1,374 1,375 1,379 1,382 1,393 1,415 1,429 1,430 1,441 1,447 1,448 1,453 1,467 1,469 1,486 1,493 1,499 1,500 1,501 1,512 1,520 1,535 1,542 1,554 1,564 1,566 1,579 1,586 1,591 1,592 1,620 1,622 1,626 1,627 1,628 1,630 1}
{4 1,28 1,106 1,122 1,123 1,175 1,283 1,292 1,308 1,321 1,351 1,367 1,396 1,450 1,556 1,591 1}
{4 1,166 1,292 1,450 1,483 1,522 1}
{4 1,175 1,292 1,381 1,415 1,449 1,450 1,556 1}
{4 1,37 1,59 1,85 1,88 1,135 1,137 1,153 1,155 1,175 1,180 1,229 1,263 1,283 1,292 1,308 1,332 1,382 1,402 1,463 1,530 1,556 1,591 1,611 1}
{4 1,70 1,106 1,160 1,168 1,195 1,215 1,249 1,304 1,334 1,434 1,450 1,512 1,647 1}
{4 1,15 1,21 1,38 1,63 1,79 1,81 1,82 1,86 1,88 1,89 1,99 1,100 1,104 1,107 1,116 1,134 1,146 1,160 1,161 1,162 1,166 1,175 1,184 1,187 1,190 1,192 1,195 1,196 1,197 1,199 1,212 1,215 1,216 1,224 1,237 1,242 1,243 1,252 1,255 1,256 1,275 1,277 1,278 1,280 1,292 1,294 1,300 1,304 1,311 1,314 1,320 1,325 1,331 1,339 1,350 1,361 1,364 1,367 1,370 1,374 1,382 1,385 1,415 1,434 1,435 1,441 1,447 1,448 1,449 1,450 1,452 1,463 1,467 1,470 1,471 1,484 1,501 1,516 1,520 1,522 1,525 1,535 1,537 1,542 1,546 1,548 1,556 1,566 1,579 1,586 1,591 1,595 1,601 1,605 1,609 1,622 1,624 1,627 1,632 1,647 1,648 1}
{4 1,59 1,83 1,85 1,110 1,160 1,175 1,252 1,286 1,295 1,312 1,313 1,325 1,415 1,417 1,430 1,446 1,448 1,449 1,471 1,549 1,556 1,624 1}
{4 1,69 1,160 1,175 1,184 1,216 1,221 1,292 1,294 1,401 1,417 1,556 1,583 1}
{4 1,48 1,59 1,85 1,137 1,153 1,155 1,165 1,175 1,292 1,301 1,360 1,367 1,395 1,602 1}
{4 1,22 1,82 1,97 1,116 1,146 1,160 1,175 1,190 1,238 1,252 1,254 1,255 1,256 1,259 1,292 1,294 1,300 1,320 1,350 1,360 1,393 1,415 1,441 1,447 1,448 1,471 1,499 1,500 1,501 1,521 1,542 1,554 1,566 1,579 1,586 1,594 1,622 1}
{4 1,108 1,175 1,184 1,238 1,448 1,542 1,596 1}
{2 1,4 1,15 1,82 1,89 1,111 1,137 1,166 1,175 1,184 1,214 1,215 1,216 1,257 1,258 1,259 1,261 1,292 1,294 1,318 1,320 1,325 1,355 1,370 1,382 1,415 1,448 1,450 1,456 1,471 1,525 1,533 1,539 1,545 1,546 1,556 1,560 1,576 1,579 1,599 1,614 1,627 1,632 1,635 1}
{4 1,89 1,175 1,199 1,205 1,220 1,248 1,277 1,292 1,294 1,370 1,415 1,449 1,482 1,537 1,556 1}
{4 1,89 1,116 1,166 1,175 1,197 1,211 1,252 1,278 1,350 1,393 1,417 1,447 1,448 1,459 1,469 1,499 1,556 1,605 1,621 1,637 1}
{4 1,278 1,362 1,363 1,450 1}
{4 1,175 1,292 1,393 1}
{4 1,215 1}
{4 1,199 1,299 1,323 1,429 1,509 1}
{4 1,48 1,59 1,85 1,89 1,292 1,296 1,479 1,489 1,634 1}
{4 1,15 1,32 1,53 1,68 1,81 1,89 1,95 1,99 1,151 1,156 1,166 1,168 1,175 1,180 1,183 1,184 1,187 1,197 1,215 1,229 1,237 1,272 1,292 1,344 1,364 1,367 1,378 1,393 1,415 1,447 1,469 1,471 1,486 1,506 1,533 1,542 1,553 1,589 1,591 1,596 1,614 1,619 1,635 1}
{4 1,59 1,153 1,160 1,175 1,382 1}
{4 1}
{4 1,40 1,56 1,65 1,73 1,74 1,104 1,123 1,129 1,133 1,137 1,154 1,171 1,172 1,184 1,187 1,191 1,232 1,235 1,238 1,270 1,292 1,310 1,321 1,324 1,326 1,349 1,367 1,371 1,402 1,409 1,421 1,430 1,532 1,538 1,648 1}
{4 1,48 1,114 1,123 1,153 1,175 1,188 1,236 1,292 1,367 1,476 1,526 1}
{4 1,48 1,59 1,85 1,102 1,110 1,155 1,197 1,212 1,237 1,296 1,395 1,447 1,638 1}
{4 1,15 1,59 1,91 1,97 1,136 1,148 1,156 1,165 1,166 1,168 1,175 1,184 1,197 1,199 1,215 1,241 1,242 1,244 1,272 1,283 1,287 1,292 1,325 1,344 1,359 1,361 1,365 1,379 1,393 1,406 1,407 1,415 1,441 1,447 1,467 1,468 1,469 1,486 1,493 1,506 1,553 1,561 1,562 1,567 1,619 1,621 1,632 1,637 1,640 1}
{4 1,89 1,415 1}
{4 1,175 1}
{4 1,85 1,179 1,182 1,308 1}
{4 1,417 1,556 1}
{4 1,19 1,166 1,175 1,187 1,197 1,212 1,215 1,237 1,292 1,334 1,384 1,408 1,471 1,647 1}
{4 1,60 1,292 1}
{4 1,417 1,556 1}
{4 1,64 1,87 1,101 1,129 1,160 1,175 1,201 1,252 1,292 1,320 1,350 1,395 1,413 1,415 1,418 1,448 1,469 1,495 1,508 1,523 1,527 1,535 1,543 1,566 1,615 1}
{2 1,4 1,15 1,69 1,84 1,160 1,175 1,194 1,215 1,237 1,272 1,278 1,292 1,329 1,333 1,344 1,446 1,447 1,450 1,522 1,553 1,556 1,567 1}
{2 1,4 1,40 1,104 1,166 1,175 1,183 1,185 1,197 1,242 1,278 1,292 1,305 1,314 1,320 1,351 1,355 1,367 1,393 1,414 1,415 1,430 1,441 1,447 1,448 1,486 1,498 1,539 1,556 1}
{4 1,85 1,110 1,115 1,138 1,160 1,163 1,184 1,186 1,212 1,227 1,229 1,292 1,340 1,395 1,504 1,516 1,522 1,591 1,606 1}
{4 1,85 1,160 1,170 1,271 1,292 1,522 1,556 1}
{4 1,523 1}
{0 1,1 1,2 1,4 1,15 1,29 1,33 1,75 1,82 1,89 1,92 1,93 1,116 1,117 1,175 1,183 1,215 1,238 1,246 1,269 1,272 1,275 1,292 1,294 1,310 1,318 1,320 1,322 1,325 1,338 1,344 1,348 1,350 1,367 1,393 1,415 1,446 1,447 1,448 1,454 1,486 1,499 1,501 1,503 1,523 1,540 1,542 1,545 1,550 1,553 1,556 1,566 1,599 1,613 1,626 1,630 1,643 1,644 1,648 1}
{4 1,82 1,110 1,165 1,197 1,215 1,278 1,292 1,294 1,304 1,320 1,325 1,393 1,415 1,447 1,448 1,450 1,469 1,501 1,608 1,624 1}
{4 1,36 1,89 1,129 1,143 1,152 1,160 1,175 1,199 1,252 1,292 1,314 1,380 1,392 1,421 1,481 1,498 1,517 1,522 1,529 1,570 1,605 1,648 1}
{4 1,48 1,59 1,63 1,81 1,85 1,86 1,148 1,153 1,161 1,166 1,175 1,184 1,187 1,192 1,197 1,210 1,212 1,215 1,216 1,237 1,241 1,242 1,252 1,288 1,292 1,294 1,304 1,320 1,345 1,346 1,350 1,360 1,361 1,364 1,367 1,370 1,395 1,408 1,415 1,447 1,489 1,520 1,522 1,535 1,556 1,565 1,567 1,628 1,632 1}
{61 1}
{4 1,48 1,59 1,85 1,155 1,166 1,252 1,292 1,298 1,395 1,402 1}
{4 1,53 1,72 1,80 1,137 1,148 1,165 1,166 1,175 1,184 1,187 1,192 1,197 1,212 1,215 1,223 1,237 1,241 1,246 1,278 1,286 1,292 1,294 1,300 1,318 1,320 1,325 1,364 1,367 1,370 1,393 1,395 1,399 1,408 1,447 1,448 1,449 1,463 1,470 1,471 1,520 1,533 1,535 1,542 1,556 1,582 1,589 1,596 1,605 1,612 1,614 1,624 1,642 1,647 1}
{4 1,36 1,89 1,153 1,184 1,229 1,278 1,292 1,382 1,409 1,415 1,423 1,431 1,612 1,614 1}
{4 1,89 1,160 1,175 1,184 1,241 1,257 1,276 1,278 1,292 1,320 1,393 1,415 1,514 1,533 1}
{4 1,15 1,59 1,81 1,89 1,175 1,196 1,215 1,292 1,320 1,358 1,367 1,375 1,382 1,389 1,393 1,408 1,447 1,448 1,450 1,532 1,542 1,642 1}
{4 1,175 1,246 1,283 1,292 1,324 1,349 1,358 1,367 1,486 1,532 1,572 1,639 1}
{4 1,53 1,63 1,81 1,88 1,98 1,137 1,153 1,160 1,166 1,175 1,184 1,187 1,197 1,215 1,237 1,278 1,292 1,320 1,329 1,364 1,382 1,393 1,415 1,440 1,446 1,447 1,455 1,471 1,504 1,520 1,533 1,627 1,647 1}
{4 1,32 1,82 1,89 1,148 1,160 1,166 1,175 1,183 1,184 1,197 1,212 1,215 1,216 1,242 1,278 1,292 1,312 1,320 1,344 1,367 1,382 1,415 1,417 1,423 1,441 1,442 1,448 1,542 1,549 1,556 1,559 1,627 1}
{4 1,19 1,59 1,85 1,102 1,110 1,153 1,272 1,383 1,439 1,541 1}
{4 1,292 1,346 1}
{4 1,18 1,48 1,59 1,85 1,153 1,155 1,175 1,292 1,296 1,367 1,395 1,447 1,479 1,482 1,489 1,523 1,611 1}
{4 1,48 1,85 1,137 1,153 1,175 1,184 1,292 1,304 1,382 1,417 1,556 1}
{4 1,123 1,132 1,236 1,367 1,523 1,611 1}
{4 1,54 1,75 1,85 1,89 1,148 1,175 1,187 1,195 1,200 1,212 1,215 1,218 1,223 1,237 1,265 1,278 1,289 1,292 1,294 1,296 1,367 1,395 1,415 1,509 1,534 1,565 1,612 1,642 1,647 1}
{4 1,131 1,175 1,199 1,292 1,320 1,415 1,440 1,447 1,448 1,449 1,523 1,530 1,624 1,639 1}
{4 1,38 1,71 1,128 1,129 1,236 1,278 1,308 1,363 1,402 1,422 1,424 1,427 1,473 1}
{4 1,85 1,292 1,308 1}
{4 1,81 1,463 1,494 1}
{4 1,43 1,97 1,116 1,153 1,168 1,175 1,187 1,190 1,202 1,215 1,237 1,238 1,254 1,291 1,294 1,298 1,320 1,325 1,393 1,408 1,415 1,417 1,440 1,441 1,447 1,449 1,463 1,499 1,500 1,501 1,523 1,542 1,556 1,566 1,573 1,579 1,594 1,608 1,622 1,624 1,630 1,647 1}
{4 1,212 1,327 1,353 1,362 1,363 1,368 1,447 1,448 1}
{2 1,4 1,15 1,29 1,89 1,92 1,93 1,104 1,151 1,160 1,166 1,175 1,203 1,215 1,272 1,292 1,294 1,313 1,322 1,417 1,448 1,469 1,528 1,556 1,566 1,598 1,613 1,626 1,644 1}
{4 1,75 1,137 1,166 1,168 1,175 1,197 1,212 1,215 1,241 1,257 1,292 1,294 1,320 1,367 1,397 1,447 1,449 1,538 1,566 1,596 1,632 1}
{4 1,19 1,65 1,89 1,116 1,119 1,136 1,137 1,143 1,144 1,173 1,175 1,190 1,197 1,200 1,233 1,237 1,246 1,252 1,254 1,255 1,261 1,288 1,291 1,292 1,294 1,300 1,312 1,313 1,360 1,367 1,370 1,375 1,426 1,441 1,449 1,467 1,474 1,486 1,499 1,500 1,501 1,510 1,516 1,520 1,526 1,535 1,586 1,591 1,594 1,597 1,622 1,626 1,627 1,630 1,648 1}
{4 1,138 1,170 1,175 1,292 1,611 1}
{4 1,48 1,59 1,69 1,85 1,110 1,131 1,184 1,186 1,278 1,292 1,296 1,345 1,460 1,522 1,634 1}
{2 1,4 1,12 1,32 1,45 1,46 1,89 1,111 1,137 1,146 1,148 1,151 1,153 1,160 1,166 1,170 1,175 1,187 1,195 1,197 1,215 1,237 1,257 1,278 1,292 1,294 1,320 1,325 1,343 1,344 1,350 1,361 1,364 1,393 1,408 1,415 1,417 1,446 1,447 1,450 1,456 1,514 1,520 1,525 1,542 1,545 1,556 1,565 1,571 1,617 1,619 1,624 1,632 1,642 1,647 1}
{170 1,417 1,556 1}
{0 1,2 1,4 1,11 1,15 1,20 1,22 1,32 1,41 1,48 1,49 1,54 1,59 1,63 1,70 1,75 1,78 1,81 1,82 1,89 1,91 1,93 1,94 1,101 1,104 1,107 1,123 1,127 1,136 1,137 1,148 1,151 1,152 1,160 1,164 1,165 1,166 1,175 1,176 1,184 1,187 1,190 1,193 1,197 1,209 1,212 1,215 1,216 1,223 1,229 1,237 1,239 1,241 1,242 1,243 1,244 1,246 1,252 1,269 1,272 1,278 1,281 1,283 1,284 1,289 1,292 1,294 1,300 1,304 1,314 1,319 1,320 1,325 1,337 1,344 1,350 1,351 1,359 1,360 1,361 1,365 1,367 1,374 1,379 1,382 1,392 1,393 1,395 1,406 1,408 1,413 1,415 1,417 1,419 1,428 1,441 1,445 1,447 1,448 1,449 1,450 1,456 1,466 1,467 1,471 1,486 1,493 1,497 1,501 1,513 1,523 1,533 1,542 1,547 1,549 1,550 1,556 1,561 1,562 1,564 1,566 1,577 1,587 1,591 1,592 1,593 1,594 1,596 1,605 1,609 1,613 1,614 1,620 1,624 1,625 1,627 1,632 1,647 1,648 1,649 1}
{4 1,123 1,137 1,153 1,175 1,184 1,216 1,292 1,366 1,367 1,526 1,556 1}
{4 1,38 1,71 1,90 1,96 1,160 1,164 1,166 1,172 1,175 1,219 1,230 1,232 1,253 1,270 1,292 1,299 1,314 1,315 1,339 1,362 1,363 1,394 1,473 1,504 1,518 1,522 1,556 1,563 1,582 1,607 1}
{4 1,175 1}
{4 1,82 1,165 1,184 1,203 1,382 1,402 1,501 1,523 1,629 1}
{4 1,175 1,184 1,278 1}
{4 1,19 1}
{4 1,61 1,99 1,137 1,160 1,166 1,175 1,184 1,195 1,292 1,348 1,415 1,417 1,449 1,450 1,469 1,504 1,525 1,556 1,628 1}
{4 1,184 1,417 1,556 1,559 1}
{4 1,43 1,82 1,95 1,166 1,175 1,187 1,197 1,223 1,278 1,292 1,344 1,350 1,393 1,397 1,441 1,535 1,554 1,556 1,567 1,597 1}
{1 1,2 1,4 1,57 1,58 1,84 1,89 1,90 1,163 1,175 1,183 1,237 1,266 1,270 1,281 1,283 1,292 1,294 1,326 1,364 1,367 1,373 1,401 1,411 1,422 1,425 1,443 1,448 1,449 1,522 1,533 1,556 1,648 1}
{4 1,89 1,153 1,212 1,221 1,288 1,292 1,332 1,534 1,612 1}
{4 1,48 1,85 1,160 1,175 1,212 1,292 1,293 1,463 1}
{4 1,53 1,160 1,175 1,215 1,292 1,399 1,533 1,556 1,582 1,605 1}
{4 1,72 1,135 1,175 1,352 1,402 1,403 1,561 1,575 1}
{4 1,175 1,211 1,249 1,292 1,395 1,417 1,556 1}
{4 1,25 1,65 1,74 1,89 1,128 1,129 1,175 1,199 1,200 1,205 1,220 1,225 1,232 1,248 1,262 1,266 1,268 1,270 1,288 1,292 1,294 1,304 1,320 1,398 1,404 1,415 1,426 1,481 1,488 1,551 1}
{4 1,10 1,73 1,89 1,112 1,268 1,481 1,522 1}
{4 1}
{4 1,21 1,48 1,53 1,56 1,58 1,72 1,76 1,82 1,84 1,89 1,90 1,95 1,104 1,107 1,114 1,123 1,126 1,134 1,137 1,141 1,152 1,153 1,160 1,165 1,172 1,175 1,178 1,180 1,183 1,203 1,209 1,210 1,215 1,216 1,217 1,222 1,229 1,231 1,232 1,236 1,238 1,242 1,253 1,254 1,257 1,258 1,259 1,261 1,267 1,288 1,292 1,294 1,299 1,309 1,310 1,311 1,314 1,315 1,317 1,318 1,321 1,323 1,324 1,331 1,346 1,349 1,351 1,365 1,367 1,373 1,378 1,389 1,393 1,396 1,402 1,405 1,417 1,420 1,432 1,433 1,443 1,447 1,449 1,450 1,457 1,466 1,471 1,476 1,486 1,487 1,497 1,505 1,522 1,533 1,542 1,543 1,545 1,548 1,555 1,556 1,566 1,569 1,575 1,576 1,581 1,584 1,588 1,589 1,591 1,595 1,597 1,598 1,609 1,627 1,632 1,642 1,648 1}
{4 1,8 1,22 1,32 1,76 1,82 1,116 1,125 1,126 1,138 1,141 1,146 1,161 1,165 1,166 1,184 1,187 1,190 1,197 1,203 1,212 1,215 1,227 1,272 1,292 1,294 1,300 1,327 1,344 1,385 1,393 1,395 1,444 1,449 1,452 1,454 1,471 1,500 1,501 1,512 1,516 1,520 1,523 1,556 1,566 1,631 1,647 1}
{4 1,367 1}
{4 1,9 1,11 1,89 1,129 1,158 1,169 1,211 1,230 1,292 1,304 1,321 1,393 1,404 1,415 1,449 1,482 1,488 1,525 1,526 1}
{4 1,19 1,24 1,82 1,99 1,116 1,148 1,155 1,159 1,160 1,168 1,175 1,197 1,207 1,212 1,216 1,272 1,283 1,292 1,350 1,379 1,393 1,447 1,448 1,449 1,464 1,523 1,542 1,566 1,569 1,596 1,623 1,624 1}
{4 1,15 1,33 1,82 1,89 1,107 1,126 1,133 1,137 1,144 1,153 1,160 1,165 1,166 1,167 1,175 1,184 1,187 1,197 1,200 1,215 1,237 1,241 1,242 1,254 1,274 1,278 1,292 1,294 1,320 1,321 1,325 1,350 1,360 1,367 1,382 1,393 1,447 1,448 1,453 1,487 1,513 1,519 1,526 1,542 1,566 1,569 1,575 1,591 1,596 1,614 1,622 1,642 1,647 1}
{4 1,66 1,69 1,160 1,175 1,292 1,415 1,417 1,522 1,556 1,605 1}
{4 1,392 1}
{4 1,119 1,159 1,417 1,447 1,467 1,556 1,615 1}
{4 1,25 1,47 1,89 1,97 1,116 1,136 1,161 1,166 1,168 1,183 1,187 1,197 1,210 1,215 1,236 1,237 1,241 1,244 1,279 1,283 1,292 1,300 1,323 1,325 1,348 1,350 1,364 1,379 1,393 1,406 1,408 1,413 1,467 1,469 1,470 1,471 1,506 1,511 1,520 1,535 1,554 1,556 1,584 1,626 1,628 1,632 1}
{4 1,48 1,59 1,63 1,72 1,81 1,82 1,85 1,110 1,119 1,144 1,146 1,148 1,155 1,166 1,184 1,187 1,196 1,197 1,198 1,203 1,212 1,215 1,237 1,272 1,284 1,292 1,294 1,296 1,337 1,370 1,393 1,395 1,408 1,455 1,479 1,489 1,523 1,556 1,565 1,589 1,591 1,602 1,642 1}
{4 1,15 1,52 1,68 1,69 1,137 1,153 1,160 1,175 1,180 1,184 1,186 1,229 1,237 1,241 1,278 1,292 1,300 1,337 1,340 1,350 1,359 1,360 1,382 1,415 1,447 1,448 1,467 1,542 1,556 1,605 1,614 1,632 1}
{4 1,37 1,48 1,59 1,85 1,110 1,135 1,153 1,160 1,166 1,175 1,187 1,192 1,215 1,237 1,292 1,408 1,415 1,417 1,489 1,523 1,556 1,647 1}
{4 1,85 1,160 1}
{4 1,22 1,48 1,49 1,74 1,76 1,82 1,91 1,116 1,141 1,144 1,146 1,153 1,165 1,168 1,175 1,184 1,215 1,242 1,273 1,278 1,282 1,284 1,294 1,304 1,350 1,360 1,367 1,382 1,393 1,415 1,441 1,447 1,450 1,469 1,480 1,506 1,521 1,523 1,528 1,542 1,566 1,572 1,586 1,591 1,596 1,614 1,622 1,632 1}
{4 1,38 1,48 1,53 1,59 1,123 1,166 1,197 1,212 1,237 1,292 1,336 1,354 1,367 1,384 1,395 1,435 1,479 1,504 1,505 1,533 1,600 1,605 1,642 1}
{2 1,4 1,82 1,89 1,175 1,183 1,190 1,259 1,272 1,283 1,288 1,292 1,319 1,415 1,428 1,440 1,447 1,522 1,523 1,534 1,567 1,624 1}
{4 1,175 1,376 1,415 1,624 1}
{4 1,61 1,175 1,218 1,292 1,417 1,522 1,556 1}
{4 1,35 1,48 1,87 1,175 1,211 1,212 1,240 1,241 1,286 1,292 1,294 1,320 1,363 1,367 1,447 1,523 1,556 1,579 1}
{4 1,292 1}
{4 1,137 1,146 1,160 1,166 1,175 1,187 1,212 1,215 1,237 1,288 1,289 1,292 1,313 1,317 1,323 1,325 1,335 1,350 1,397 1,413 1,415 1,416 1,417 1,447 1,471 1,542 1,545 1,556 1,566 1,605 1}
{4 1,30 1,56 1,89 1,123 1,137 1,146 1,158 1,166 1,175 1,184 1,187 1,188 1,197 1,215 1,241 1,278 1,279 1,292 1,321 1,364 1,365 1,367 1,415 1,440 1,447 1,448 1,461 1,467 1,471 1,520 1,526 1,535 1,556 1,567 1,596 1,624 1,625 1,632 1}
{4 1,292 1,386 1,417 1,556 1}
{4 1,89 1,175 1,292 1,417 1,463 1,556 1}
{4 1,128 1,175 1,292 1,417 1,422 1,449 1,522 1,542 1,556 1}
{4 1,170 1,292 1,304 1,417 1,450 1,556 1}
{4 1,69 1,76 1,137 1,153 1,160 1,175 1,184 1,278 1,292 1,337 1,367 1,382 1,415 1,463 1,575 1}
{4 1,160 1,166 1,168 1,175 1,197 1,215 1,237 1,292 1,393 1,415 1,504 1,642 1}
{4 1,48 1,59 1,85 1,110 1,153 1,175 1,292 1,370 1,556 1,570 1,610 1}
{4 1,36 1,195 1,220 1,245 1,292 1,316 1,335 1,381 1,422 1,424 1,497 1,556 1,648 1}
{4 1}
{1 1,2 1,4 1,15 1,29 1,35 1,36 1,59 1,70 1,75 1,82 1,89 1,91 1,93 1,100 1,101 1,116 1,119 1,137 1,141 1,146 1,160 1,175 1,176 1,184 1,197 1,212 1,215 1,242 1,255 1,259 1,292 1,293 1,294 1,299 1,300 1,317 1,320 1,325 1,347 1,350 1,358 1,359 1,360 1,365 1,367 1,370 1,382 1,392 1,393 1,399 1,415 1,441 1,447 1,448 1,449 1,450 1,463 1,464 1,467 1,469 1,489 1,499 1,500 1,501 1,525 1,542 1,544 1,556 1,566 1,567 1,579 1,586 1,591 1,592 1,596 1,614 1,624 1,626 1,627 1,628 1,632 1,644 1,648 1}
{4 1,206 1,229 1,463 1,485 1,542 1,556 1}
{4 1,35 1,36 1,69 1,72 1,77 1,91 1,101 1,137 1,152 1,165 1,168 1,175 1,180 1,184 1,212 1,241 1,244 1,260 1,278 1,300 1,304 1,360 1,363 1,393 1,460 1,463 1,523 1,530 1,569 1,591 1,614 1,636 1}
{0 1,2 1,4 1,14 1,15 1,25 1,32 1,59 1,60 1,75 1,91 1,93 1,94 1,99 1,101 1,104 1,107 1,114 1,137 1,153 1,165 1,170 1,175 1,184 1,188 1,197 1,215 1,223 1,241 1,242 1,252 1,257 1,261 1,264 1,272 1,274 1,275 1,276 1,278 1,282 1,285 1,292 1,294 1,304 1,305 1,320 1,344 1,349 1,350 1,356 1,367 1,375 1,382 1,393 1,415 1,441 1,445 1,447 1,448 1,449 1,450 1,469 1,486 1,499 1,500 1,501 1,504 1,508 1,514 1,533 1,539 1,542 1,544 1,566 1,591 1,596 1,605 1,608 1,613 1,614 1,624 1,625 1,626 1,632 1,642 1,648 1}
{4 1,59 1,76 1,116 1,144 1,175 1,184 1,252 1,254 1,280 1,292 1,294 1,296 1,320 1,347 1,360 1,382 1,393 1,395 1,448 1,471 1,493 1,499 1,501 1,513 1,542 1,579 1,586 1,591 1,622 1,636 1}
{4 1,175 1,292 1,556 1}
{4 1,105 1,175 1,527 1}
{4 1}
{4 1,53 1,116 1,160 1,175 1,184 1,292 1,382 1,415 1,447 1,523 1,533 1,596 1,614 1}
{4 1}
{4 1,134 1,160 1,166 1,175 1,197 1,212 1,215 1,292 1,388 1,415 1,465 1,522 1,556 1}
{2 1,4 1,8 1,19 1,67 1,97 1,151 1,168 1,175 1,237 1,268 1,272 1,292 1,303 1,329 1,449 1,506 1,507 1,522 1,545 1,556 1,605 1,615 1,648 1}
{4 1,15 1,22 1,63 1,81 1,89 1,97 1,101 1,116 1,119 1,120 1,143 1,144 1,145 1,165 1,166 1,175 1,179 1,184 1,190 1,197 1,215 1,237 1,241 1,243 1,252 1,254 1,259 1,272 1,278 1,288 1,291 1,292 1,294 1,344 1,350 1,360 1,365 1,369 1,370 1,374 1,382 1,393 1,436 1,441 1,447 1,448 1,449 1,469 1,484 1,501 1,512 1,533 1,542 1,545 1,550 1,553 1,554 1,556 1,579 1,586 1,591 1,596 1,605 1,609 1,615 1,630 1,632 1,647 1}
{4 1,59 1,85 1,123 1,212 1,292 1}
{4 1,215 1,417 1,556 1}
{4 1,34 1,67 1,69 1,89 1,178 1,220 1,256 1,271 1,292 1,307 1,314 1,320 1,321 1,393 1,398 1,449 1,450 1,463 1,466 1,522 1,525 1,551 1,578 1}
{4 1,55 1,57 1,89 1,174 1,187 1,216 1,235 1,257 1,259 1,288 1,292 1,332 1,378 1,458 1}
{4 1,84 1,270 1,292 1,466 1,556 1}
{4 1,22 1,41 1,44 1,47 1,53 1,115 1,144 1,152 1,160 1,168 1,175 1,183 1,184 1,199 1,205 1,215 1,229 1,237 1,238 1,245 1,246 1,248 1,252 1,274 1,280 1,281 1,282 1,292 1,299 1,304 1,305 1,310 1,314 1,324 1,325 1,344 1,363 1,365 1,367 1,375 1,378 1,385 1,389 1,393 1,395 1,428 1,448 1,451 1,474 1,486 1,500 1,505 1,506 1,516 1,591 1}
{4 1}
{2 1,4 1,89 1,99 1,108 1,123 1,124 1,152 1,154 1,160 1,166 1,173 1,175 1,187 1,215 1,217 1,229 1,233 1,270 1,292 1,294 1,299 1,314 1,339 1,364 1,367 1,395 1,443 1,449 1,450 1,457 1,481 1,504 1,522 1,533 1,545 1,556 1,576 1,627 1,641 1,648 1}
{4 1,137 1,175 1,272 1,292 1,360 1,395 1,417 1,542 1,556 1}
{2 1,4 1,10 1,15 1,20 1,33 1,34 1,38 1,51 1,67 1,82 1,89 1,104 1,107 1,127 1,168 1,170 1,172 1,175 1,183 1,200 1,238 1,242 1,254 1,292 1,294 1,307 1,320 1,321 1,325 1,332 1,338 1,367 1,405 1,415 1,424 1,427 1,447 1,448 1,450 1,466 1,486 1,499 1,506 1,522 1,537 1,542 1,544 1,551 1,566 1,624 1,632 1}
{4 1,142 1,160 1,175 1,292 1,415 1,447 1,450 1,471 1,487 1,508 1,566 1}
{4 1,89 1,160 1,175 1,292 1,417 1,463 1,556 1,605 1}
{4 1,85 1,175 1,215 1,292 1,415 1,450 1,536 1,556 1,634 1}
{4 1,83 1,89 1,99 1,160 1,194 1,222 1,223 1,292 1,450 1,508 1,596 1}
{4 1,35 1,53 1,76 1,81 1,82 1,89 1,115 1,137 1,146 1,155 1,160 1,175 1,184 1,185 1,203 1,216 1,229 1,233 1,243 1,252 1,253 1,259 1,288 1,289 1,292 1,294 1,300 1,304 1,315 1,320 1,350 1,351 1,361 1,365 1,367 1,382 1,415 1,449 1,452 1,467 1,471 1,499 1,515 1,516 1,517 1,533 1,550 1,566 1,567 1,581 1,582 1,585 1,587 1,591 1,597 1,631 1,635 1,648 1}
{4 1,111 1,168 1,175 1,184 1,186 1,229 1,292 1,314 1,325 1,350 1,367 1,378 1,417 1,428 1,449 1,506 1,542 1,556 1}
{4 1,227 1}
{4 1,82 1,160 1,175 1,184 1,242 1,292 1,294 1,320 1,350 1,367 1,393 1,415 1,442 1,447 1,448 1,450 1,467 1,542 1,556 1,632 1}
{4 1,18 1,81 1,102 1,110 1,155 1,175 1,180 1,308 1,370 1,556 1}
{4 1,59 1,69 1,110 1,153 1,154 1,175 1,259 1,341 1,448 1,449 1,462 1,497 1,556 1,582 1,646 1}
{4 1,84 1,217 1,292 1}
{4 1,108 1,160 1,175 1,215 1,292 1,415 1,522 1,556 1,605 1}
{4 1,175 1,528 1,542 1,572 1}
{4 1,160 1,242 1,292 1,420 1,504 1,556 1,605 1}
{4 1,525 1}
{4 1,30 1,56 1,89 1,137 1,160 1,175 1,214 1,215 1,216 1,259 1,261 1,292 1,305 1,317 1,318 1,366 1,367 1,374 1,415 1,417 1,461 1,470 1,487 1,501 1,526 1,527 1,533 1,545 1,556 1,605 1,627 1}
{2 1,4 1,66 1,73 1,84 1,89 1,128 1,182 1,184 1,259 1,268 1,270 1,298 1,321 1,336 1,367 1,378 1,417 1,456 1,481 1,491 1,522 1,556 1,627 1}
{4 1,49 1,76 1,94 1,137 1,148 1,175 1,184 1,197 1,212 1,242 1,292 1,401 1,403 1,413 1,556 1}
{4 1,501 1}
{4 1,110 1,417 1,556 1}
{4 1,89 1,160 1,176 1,221 1,292 1,329 1,417 1,450 1,504 1,533 1,556 1}
{4 1,18 1,82 1,86 1,165 1,175 1,184 1,242 1,260 1,272 1,278 1,279 1,292 1,377 1,417 1,446 1,447 1,448 1,553 1,556 1,605 1,614 1,625 1}
{4 1,297 1,635 1}
{4 1,43 1,89 1,128 1,170 1,175 1,253 1,292 1,294 1,304 1,450 1,458 1,522 1,605 1}
{4 1,5 1,19 1,40 1,74 1,104 1,112 1,126 1,129 1,160 1,189 1,200 1,230 1,262 1,292 1,307 1,325 1,328 1,332 1,351 1,378 1,423 1,426 1,486 1,578 1}
{4 1,98 1,175 1,187 1,215 1,292 1,522 1,542 1,556 1,605 1}
{4 1,62 1,89 1,107 1,140 1,165 1,175 1,183 1,184 1,186 1,272 1,278 1,292 1,356 1,382 1,393 1,415 1,446 1,447 1,450 1,481 1,486 1,533 1,542 1,545 1,553 1,614 1,642 1}
{4 1,31 1,40 1,175 1,292 1,294 1,324 1,331 1,355 1,367 1,572 1,581 1,648 1}
{4 1,224 1,292 1,338 1,597 1}
{4 1,254 1,417 1,528 1,556 1}
{4 1,32 1,53 1,91 1,101 1,137 1,151 1,152 1,160 1,166 1,184 1,192 1,193 1,209 1,231 1,241 1,242 1,244 1,252 1,272 1,278 1,287 1,292 1,329 1,353 1,359 1,395 1,441 1,456 1,500 1,501 1,529 1,533 1,539 1,542 1,553 1,568 1,577 1,586 1,588 1,591 1,597 1,608 1,622 1,645 1,648 1}
{2 1,4 1,14 1,15 1,32 1,47 1,73 1,84 1,137 1,140 1,146 1,151 1,160 1,166 1,168 1,170 1,175 1,184 1,187 1,197 1,215 1,216 1,237 1,272 1,278 1,286 1,292 1,304 1,313 1,318 1,319 1,320 1,325 1,350 1,364 1,378 1,382 1,393 1,408 1,415 1,447 1,448 1,450 1,469 1,471 1,506 1,511 1,522 1,553 1,556 1,559 1,566 1,574 1,589 1,605 1,608 1,614 1,617 1,642 1,645 1,647 1}
{4 1,37 1,59 1,85 1,88 1,182 1,383 1,541 1,597 1}
{4 1,50 1,60 1,69 1,89 1,104 1,126 1,168 1,178 1,184 1,185 1,192 1,195 1,210 1,212 1,215 1,229 1,239 1,246 1,272 1,274 1,285 1,292 1,328 1,393 1,397 1,434 1,447 1,493 1,506 1,524 1,530 1,567 1,617 1}
{4 1,175 1,215 1,292 1,334 1}
{4 1,48 1,59 1,85 1,110 1,153 1,175 1,292 1,438 1,556 1,570 1,605 1}
{4 1,63 1,81 1,119 1,146 1,162 1,237 1,292 1,436 1,589 1,647 1}
{4 1,18 1,99 1,165 1,175 1,184 1,276 1,278 1,292 1,294 1,393 1,415 1,448 1,450 1,556 1,596 1}
{4 1,184 1,186 1,229 1,283 1,304 1,556 1}
{4 1,59 1,85 1}
{4 1,61 1,292 1}
{4 1,153 1,169 1,175 1,195 1,278 1,292 1,533 1,583 1}
{4 1,52 1,278 1,282 1,292 1,304 1,417 1,428 1,448 1,556 1,632 1}
{4 1,153 1,155 1,160 1,180 1,184 1,292 1,320 1,533 1}
{4 1}
{4 1,61 1,143 1,144 1,166 1,170 1,175 1,184 1,212 1,215 1,241 1,278 1,292 1,415 1,447 1,522 1,523 1,542 1,556 1}
{4 1,417 1,556 1}
{0 1,4 1,15 1,32 1,82 1,118 1,165 1,166 1,175 1,183 1,184 1,187 1,197 1,215 1,216 1,272 1,275 1,278 1,292 1,318 1,331 1,344 1,365 1,367 1,382 1,393 1,471 1,486 1,506 1,542 1,554 1,556 1,596 1,605 1,614 1,635 1}
{4 1,99 1,124 1,134 1,175 1,184 1,205 1,208 1,215 1,241 1,248 1,283 1,294 1,331 1,366 1,367 1,382 1,476 1,486 1,505 1,556 1,614 1}
{4 1,519 1}
{4 1,12 1,32 1,84 1,91 1,107 1,140 1,151 1,160 1,165 1,166 1,175 1,176 1,184 1,187 1,194 1,195 1,210 1,215 1,237 1,241 1,272 1,278 1,281 1,292 1,296 1,319 1,340 1,361 1,367 1,393 1,415 1,417 1,428 1,447 1,448 1,449 1,450 1,470 1,486 1,509 1,516 1,535 1,553 1,556 1,574 1,597 1,605 1,645 1,649 1}
{4 1,193 1,227 1,292 1,327 1,444 1,451 1,452 1,478 1,516 1}
{2 1,4 1,8 1,15 1,32 1,36 1,70 1,81 1,82 1,89 1,107 1,116 1,137 1,142 1,151 1,166 1,168 1,175 1,184 1,197 1,203 1,212 1,215 1,216 1,229 1,254 1,255 1,257 1,272 1,275 1,278 1,283 1,292 1,294 1,304 1,314 1,325 1,393 1,441 1,447 1,448 1,449 1,467 1,470 1,498 1,501 1,521 1,542 1,550 1,553 1,556 1,566 1,568 1,579 1,586 1,605 1,632 1}
{4 1,128 1,149 1,160 1,166 1,175 1,292 1,522 1}
{4 1,18 1,89 1,95 1,153 1,160 1,175 1,197 1,223 1,292 1,448 1,450 1,519 1,591 1,615 1,647 1}
{4 1,15 1,70 1,94 1,95 1,116 1,151 1,175 1,195 1,197 1,212 1,254 1,292 1,350 1,370 1,374 1,395 1,442 1,446 1,447 1,448 1,511 1,542 1,644 1}
{4 1}
{4 1}
{4 1,175 1,198 1,241 1,292 1,304 1,445 1,508 1,614 1,632 1}
{4 1,18 1,48 1,75 1,85 1,212 1,370 1,502 1,518 1}
{4 1,28 1,107 1,123 1,175 1,292 1,308 1,367 1,450 1,452 1,556 1}
{4 1,85 1,160 1,175 1,292 1,450 1,463 1,605 1}
{4 1,18 1,89 1,99 1,137 1,175 1,184 1,278 1,292 1,320 1,330 1,350 1,382 1,415 1,448 1,449 1,596 1,624 1}
{4 1,44 1,137 1,153 1,175 1,184 1,276 1,278 1,292 1,294 1,320 1,363 1,367 1,382 1,393 1,402 1,433 1,441 1,447 1,448 1,466 1,497 1,514 1,593 1,614 1,624 1}
{4 1,6 1,34 1,56 1,89 1,109 1,126 1,137 1,168 1,175 1,184 1,189 1,200 1,223 1,229 1,278 1,283 1,292 1,294 1,303 1,308 1,313 1,320 1,332 1,367 1,368 1,369 1,378 1,412 1,415 1,471 1,501 1,506 1,507 1,522 1,533 1,556 1,589 1,606 1,639 1,643 1}
{4 1,48 1,59 1,85 1,170 1,175 1,292 1,296 1,605 1}
{4 1,197 1,215 1,408 1,417 1,556 1,647 1}
{4 1,85 1}
{2 1,4 1,22 1,70 1,78 1,116 1,137 1,175 1,178 1,183 1,184 1,272 1,278 1,292 1,304 1,447 1,523 1,542 1,556 1,614 1,632 1}
{4 1,175 1,292 1,367 1,393 1,395 1}
{4 1,292 1,417 1,556 1,591 1}
{4 1,175 1,257 1,292 1,294 1,321 1,331 1,367 1,466 1,605 1}
{4 1,88 1,175 1,180 1,292 1,556 1,567 1,618 1}
{4 1,110 1}
{4 1,129 1,175 1,292 1,329 1,356 1,360 1,377 1,393 1,399 1,415 1,486 1,491 1,522 1,566 1}
{4 1,236 1,367 1,417 1,447 1,556 1}
{4 1,33 1,89 1,107 1,123 1,137 1,175 1,215 1,283 1,292 1,294 1,295 1,325 1,367 1,393 1,399 1,415 1,447 1,448 1,450 1,454 1,461 1,471 1,503 1,542 1,556 1,557 1,626 1,642 1}
{4 1,32 1,84 1,151 1,175 1,197 1,272 1,278 1,292 1,523 1,553 1}
{4 1,556 1}
{4 1,32 1,52 1,84 1,89 1,134 1,160 1,175 1,197 1,272 1,278 1,292 1,294 1,305 1,367 1,393 1,415 1,417 1,448 1,450 1,554 1,556 1,596 1,632 1}
{4 1,148 1,166 1,175 1,187 1,197 1,212 1,215 1,237 1,292 1,408 1,417 1,520 1,556 1,647 1}
{4 1,71 1,99 1,128 1,130 1,175 1,299 1,321 1,378 1,394 1,415 1,450 1}
{4 1,153 1,160 1,175 1,215 1,292 1,304 1,504 1,556 1}
{4 1,48 1,59 1,85 1,110 1,175 1,292 1,308 1,489 1,523 1,602 1}
{4 1,15 1,41 1,59 1,85 1,89 1,100 1,110 1,113 1,119 1,137 1,143 1,144 1,145 1,146 1,160 1,175 1,181 1,198 1,199 1,203 1,204 1,206 1,210 1,212 1,215 1,229 1,237 1,252 1,283 1,292 1,294 1,300 1,312 1,333 1,344 1,347 1,348 1,351 1,353 1,357 1,367 1,370 1,373 1,429 1,438 1,463 1,464 1,467 1,471 1,474 1,485 1,486 1,490 1,542 1,556 1,563 1,581 1,589 1,591 1,597 1,602 1,613 1,628 1,629 1}
{4 1,53 1,160 1,175 1,292 1,523 1,569 1}
{4 1,85 1}
{4 1,69 1,130 1,137 1,165 1,175 1,242 1,265 1,292 1,294 1,300 1,320 1,378 1,394 1,417 1,449 1,501 1,556 1,608 1,609 1}
{4 1,24 1,48 1,53 1,59 1,85 1,153 1,175 1,238 1,292 1,383 1,400 1,415 1,438 1,462 1,490 1,522 1,523 1,542 1,612 1}
{4 1,510 1}
{4 1,53 1,69 1,160 1,175 1,221 1,384 1,415 1,446 1,523 1,533 1,556 1,571 1,605 1}
{4 1,175 1,523 1}
{4 1,81 1,82 1,135 1,161 1,166 1,175 1,184 1,215 1,278 1,285 1,292 1,395 1,435 1,447 1,475 1,522 1,524 1,535 1,542 1,556 1,647 1}
{4 1,13 1,38 1,51 1,67 1,75 1,76 1,82 1,88 1,89 1,94 1,113 1,153 1,165 1,166 1,169 1,175 1,192 1,215 1,216 1,237 1,257 1,261 1,292 1,294 1,300 1,304 1,307 1,315 1,318 1,351 1,367 1,373 1,378 1,392 1,423 1,447 1,450 1,468 1,481 1,521 1,522 1,523 1,530 1,542 1,556 1,565 1,566 1,576 1,579 1,599 1,618 1,624 1,627 1,647 1}
{4 1,214 1,216 1,294 1,417 1,556 1}
{4 1,84 1,175 1,292 1}
{4 1,59 1,69 1,101 1,103 1,106 1,113 1,123 1,126 1,131 1,147 1,152 1,175 1,184 1,310 1,314 1,367 1,382 1,415 1,462 1,478 1,479 1,526 1,609 1}
{4 1,75 1,116 1,166 1,175 1,184 1,195 1,197 1,199 1,215 1,247 1,252 1,254 1,255 1,278 1,292 1,344 1,350 1,393 1,447 1,490 1,500 1,501 1,520 1,535 1,542 1,554 1,609 1,615 1,622 1}
{4 1,59 1,85 1,184 1,278 1,363 1,382 1,477 1}
{4 1,20 1,106 1,160 1,166 1,192 1,197 1,212 1,215 1,292 1,294 1,313 1,320 1,323 1,351 1,367 1,408 1,415 1,417 1,446 1,450 1,471 1,525 1,556 1,647 1}
{4 1,22 1,116 1,146 1,165 1,175 1,190 1,197 1,255 1,292 1,294 1,350 1,365 1,417 1,447 1,469 1,499 1,500 1,501 1,556 1,566 1,594 1,613 1,622 1,630 1}
{2 1,4 1,7 1,9 1,11 1,56 1,66 1,67 1,81 1,89 1,90 1,129 1,151 1,175 1,189 1,200 1,220 1,232 1,248 1,262 1,266 1,292 1,307 1,321 1,367 1,397 1,398 1,404 1,415 1,432 1,446 1,466 1,470 1,473 1,481 1,482 1,488 1,501 1,522 1,525 1,551 1,556 1,582 1,605 1,632 1}
{89 1,137 1,184 1,351 1,382 1,526 1,527 1}
{4 1,91 1,137 1,160 1,175 1,184 1,241 1,278 1,292 1,367 1,382 1,415 1,417 1,447 1,449 1,450 1,468 1,525 1,556 1,597 1,605 1}
{4 1,48 1,85 1,153 1,175 1,184 1,237 1,278 1,292 1,417 1,542 1,556 1,582 1}
{2 1,4 1,89 1,201 1,272 1,292 1,417 1,433 1,449 1,542 1,553 1,556 1,566 1}
{4 1,75 1,89 1,124 1,129 1,140 1,160 1,166 1,168 1,175 1,183 1,197 1,199 1,210 1,215 1,237 1,251 1,252 1,253 1,278 1,288 1,292 1,307 1,320 1,329 1,430 1,446 1,471 1,484 1,499 1,506 1,514 1,556 1,565 1,577 1,612 1,627 1,642 1,647 1}
{4 1,48 1,59 1,85 1,212 1,522 1}
{4 1,175 1,329 1,332 1,496 1,504 1,533 1,604 1,642 1}
{2 1,4 1,15 1,22 1,32 1,49 1,53 1,69 1,76 1,89 1,98 1,137 1,152 1,153 1,168 1,175 1,183 1,184 1,186 1,212 1,229 1,272 1,278 1,292 1,294 1,329 1,337 1,367 1,382 1,393 1,397 1,413 1,415 1,441 1,447 1,448 1,449 1,462 1,469 1,471 1,512 1,542 1,553 1,556 1,566 1,593 1,605 1,608 1,609 1,614 1,632 1}
{4 1,110 1,363 1,463 1,522 1,556 1}
{4 1,166 1,175 1,226 1,259 1,265 1,292 1,307 1,393 1,421 1,481 1,522 1,556 1}
{4 1,292 1}
{4 1,175 1,292 1,367 1,423 1,556 1}
{4 1,52 1,53 1,82 1,89 1,107 1,116 1,137 1,144 1,160 1,166 1,175 1,184 1,187 1,197 1,212 1,215 1,216 1,238 1,252 1,259 1,278 1,292 1,314 1,350 1,367 1,393 1,408 1,415 1,447 1,448 1,450 1,469 1,513 1,522 1,542 1,556 1,571 1,615 1,624 1}
{4 1,243 1}
{4 1,82 1,94 1,166 1,239 1,292 1,393 1,399 1,417 1,448 1,556 1}
{4 1,48 1,59 1,85 1,110 1,175 1,212 1,292 1,556 1,580 1,582 1,605 1}
{4 1,44 1,53 1,85 1,423 1,522 1,583 1}
{4 1,85 1,95 1,160 1,175 1,184 1,267 1,292 1,295 1,301 1,367 1,415 1,446 1,458 1,501 1,542 1,556 1}
{4 1,87 1,175 1,292 1,320 1,395 1,523 1,556 1,566 1,598 1}
{4 1,38 1,54 1,63 1,81 1,82 1,89 1,91 1,98 1,101 1,118 1,126 1,132 1,137 1,139 1,148 1,152 1,160 1,165 1,168 1,175 1,184 1,197 1,199 1,207 1,212 1,214 1,215 1,216 1,228 1,229 1,238 1,239 1,241 1,242 1,278 1,283 1,292 1,294 1,300 1,304 1,314 1,337 1,340 1,355 1,359 1,360 1,361 1,366 1,367 1,370 1,374 1,382 1,395 1,407 1,413 1,447 1,475 1,478 1,492 1,500 1,503 1,520 1,558 1,561 1,562 1,564 1,592 1,600 1,608 1,609 1,615 1,620 1,644 1}
{4 1,22 1,70 1,89 1,90 1,137 1,165 1,175 1,216 1,242 1,292 1,294 1,304 1,306 1,318 1,326 1,350 1,382 1,396 1,402 1,405 1,447 1,514 1,523 1,542 1,566 1,614 1,624 1,632 1}
{4 1,22 1,76 1,110 1,116 1,143 1,247 1,252 1,291 1,292 1,294 1,370 1,378 1,431 1,512 1,550 1,579 1,590 1,591 1,612 1,618 1,628 1,629 1,637 1}
{4 1,40 1,76 1,77 1,88 1,91 1,99 1,101 1,118 1,143 1,166 1,175 1,184 1,197 1,234 1,241 1,247 1,257 1,274 1,278 1,286 1,292 1,294 1,344 1,351 1,359 1,365 1,367 1,382 1,395 1,408 1,415 1,448 1,471 1,493 1,501 1,519 1,556 1,596 1,639 1}
{4 1,82 1,86 1,110 1,116 1,159 1,166 1,178 1,187 1,197 1,212 1,215 1,237 1,241 1,278 1,292 1,294 1,320 1,323 1,350 1,364 1,393 1,408 1,413 1,415 1,417 1,447 1,448 1,450 1,463 1,469 1,470 1,471 1,520 1,535 1,545 1,556 1,559 1,617 1,618 1,647 1}
{4 1,19 1,85 1,153 1,160 1,175 1,252 1,292 1,499 1,500 1,622 1}
{4 1,175 1,223 1,292 1,367 1,418 1,446 1,449 1}
{4 1,499 1}
{4 1,160 1,292 1,415 1,417 1,471 1,514 1,556 1}
{4 1,331 1,332 1}
{4 1,131 1,292 1,366 1,367 1}
{4 1,48 1,59 1,85 1,128 1,290 1,292 1,296 1,301 1,447 1,612 1}
{4 1,23 1,82 1,137 1,159 1,160 1,166 1,175 1,183 1,242 1,278 1,292 1,294 1,325 1,350 1,382 1,393 1,410 1,415 1,441 1,446 1,447 1,448 1,450 1,542 1,556 1,624 1,632 1}
{4 1,292 1}
{4 1,39 1,48 1,59 1,85 1,88 1,89 1,106 1,110 1,135 1,160 1,163 1,175 1,187 1,212 1,237 1,238 1,292 1,296 1,435 1,475 1,479 1,489 1,523 1,556 1,602 1,605 1,647 1}
{4 1,19 1,101 1,175 1,221 1,292 1,364 1,395 1,410 1,569 1}
{4 1,175 1,292 1,393 1,395 1,481 1,556 1}
{4 1,75 1,82 1,278 1,292 1,300 1,320 1,365 1,382 1,398 1,415 1,417 1,447 1,448 1,475 1,501 1,505 1,517 1,545 1,550 1,556 1,585 1}
{4 1,19 1,147 1,175 1,292 1,499 1}
{3 1,4 1,82 1,86 1,94 1,101 1,124 1,129 1,166 1,170 1,175 1,180 1,242 1,260 1,292 1,362 1,382 1,393 1,395 1,408 1,415 1,419 1,440 1,441 1,446 1,448 1,449 1,522 1,524 1,542 1,566 1,569 1,596 1,605 1,623 1,624 1}
{4 1,175 1,322 1}
{4 1,160 1,175 1,292 1}
{4 1,175 1}
{4 1,15 1,124 1,137 1,166 1,175 1,184 1,187 1,212 1,215 1,237 1,278 1,320 1,350 1,367 1,415 1,447 1,525 1,542 1,556 1,566 1,594 1,601 1,614 1}
{4 1,48 1,59 1,69 1,72 1,77 1,85 1,92 1,124 1,135 1,137 1,153 1,155 1,160 1,165 1,175 1,184 1,186 1,202 1,241 1,257 1,304 1,331 1,360 1,367 1,382 1,391 1,447 1,463 1,476 1,529 1,552 1,556 1,591 1,596 1}
{4 1,38 1,81 1,210 1,236 1,292 1,367 1,374 1,447 1,494 1,556 1,597 1,600 1,643 1}
{4 1,89 1,160 1,175 1,187 1,215 1,292 1,346 1,370 1,415 1,448 1,475 1,504 1,508 1,519 1,522 1,525 1,542 1,556 1}
{4 1,113 1,417 1,556 1}
{4 1,36 1,59 1,99 1,110 1,153 1,175 1,212 1,241 1,308 1,367 1,462 1,479 1,591 1}
{4 1,69 1,85 1,160 1,175 1,238 1,259 1,288 1,292 1,341 1,533 1,582 1,646 1}
{4 1,84 1,241 1,292 1,368 1,370 1,417 1,450 1,470 1,556 1,648 1}
{4 1,127 1,129 1,187 1,223 1,292 1,294 1,314 1,364 1,415 1,470 1,471 1,520 1}
{59 1,123 1,143 1,170 1,175 1,184 1,188 1,206 1,221 1,263 1,283 1,322 1,367 1,396 1,469 1,487 1,523 1,526 1,542 1,566 1,591 1,596 1}
{4 1,19 1,94 1,184 1,292 1,495 1}
{4 1,82 1,128 1,133 1,175 1,216 1,242 1,283 1,320 1,321 1,332 1,365 1,366 1,367 1,415 1,648 1}
{4 1,24 1,129 1,135 1,166 1,320 1,336 1,393 1,417 1,419 1,446 1,556 1,605 1,621 1}
{4 1}
{4 1}
{4 1,28 1,53 1,89 1,160 1,175 1,252 1,257 1,292 1,313 1,325 1,350 1,415 1,448 1,469 1,499 1,533 1,542 1,556 1}
{4 1,85 1,137 1,160 1,238 1,533 1}
{4 1}
{4 1,59 1,85 1,89 1,137 1,160 1,175 1,197 1,260 1,267 1,292 1,304 1,362 1,431 1,448 1,449 1,520 1,556 1,601 1}
{4 1,137 1,146 1,175 1,241 1}
{4 1,83 1,107 1,194 1,292 1,408 1,450 1,471 1,508 1,553 1,568 1,642 1}
{4 1,18 1,53 1,69 1,80 1,85 1,89 1,153 1,160 1,166 1,175 1,197 1,212 1,215 1,292 1,415 1,463 1,485 1,522 1,542 1,556 1,647 1}
{4 1,59 1,75 1,81 1,85 1,94 1,99 1,101 1,107 1,137 1,160 1,165 1,166 1,175 1,179 1,184 1,186 1,197 1,212 1,215 1,222 1,267 1,278 1,283 1,292 1,304 1,308 1,320 1,351 1,364 1,367 1,382 1,386 1,390 1,393 1,395 1,402 1,415 1,448 1,487 1,492 1,508 1,520 1,544 1,569 1,591 1,596 1,603 1,605 1,632 1,647 1}
{4 1,292 1,639 1}
{4 1,75 1,89 1,137 1,160 1,165 1,168 1,175 1,184 1,197 1,215 1,222 1,241 1,257 1,272 1,276 1,278 1,292 1,304 1,305 1,320 1,325 1,337 1,360 1,367 1,408 1,415 1,446 1,449 1,500 1,501 1,554 1,617 1,622 1}
{4 1,85 1,102 1,160 1,175 1,283 1,292 1,395 1,542 1}
{4 1,63 1,192 1,210 1,509 1}
{4 1,160 1,175 1,226 1,393 1,502 1,522 1,556 1}
{4 1,5 1,6 1,38 1,44 1,50 1,66 1,74 1,78 1,89 1,95 1,105 1,140 1,151 1,154 1,156 1,171 1,172 1,175 1,183 1,197 1,209 1,215 1,229 1,232 1,262 1,268 1,271 1,292 1,306 1,307 1,315 1,339 1,340 1,378 1,387 1,393 1,415 1,423 1,425 1,426 1,443 1,449 1,463 1,466 1,472 1,473 1,481 1,497 1,511 1,517 1,522 1,525 1,539 1,540 1,556 1,577 1,596 1,605 1,627 1}
{4 1,292 1}
{4 1,19 1,49 1,82 1,130 1,136 1,148 1,153 1,173 1,175 1,216 1,242 1,273 1,278 1,279 1,292 1,304 1,305 1,320 1,393 1,442 1,449 1,542 1,549 1,564 1,591 1,596 1,623 1}
{4 1,5 1,6 1,64 1,66 1,71 1,89 1,110 1,125 1,129 1,160 1,175 1,195 1,205 1,218 1,220 1,248 1,270 1,292 1,294 1,307 1,314 1,320 1,329 1,398 1,404 1,412 1,415 1,441 1,448 1,450 1,481 1,488 1,504 1,522 1,530 1,547 1,556 1,616 1,648 1}
{4 1,160 1,522 1}
{4 1,99 1,137 1,160 1,175 1,184 1,241 1,278 1,292 1,367 1,382 1,415 1,463 1,542 1,556 1,591 1,596 1}
{4 1,48 1,160 1,175 1,212 1,292 1,448 1,556 1}
{4 1,81 1,160 1,166 1,175 1,179 1,187 1,197 1,212 1,215 1,292 1,364 1,408 1,415 1,417 1,447 1,449 1,520 1,542 1,556 1,633 1,647 1}
{4 1,48 1,81 1,82 1,89 1,100 1,116 1,119 1,120 1,143 1,144 1,146 1,162 1,166 1,175 1,181 1,190 1,192 1,197 1,199 1,203 1,212 1,215 1,237 1,252 1,254 1,278 1,291 1,292 1,294 1,299 1,300 1,350 1,370 1,374 1,393 1,417 1,436 1,447 1,448 1,463 1,500 1,501 1,542 1,556 1,579 1,581 1,586 1,588 1,589 1,591 1,596 1,622 1,629 1}
{4 1,46 1,53 1,89 1,175 1,184 1,195 1,241 1,259 1,292 1,343 1,344 1,350 1,367 1,450 1,498 1,504 1,514 1,533 1,542 1,556 1,605 1,627 1}
{4 1,73 1,160 1,270 1,292 1,309 1,409 1}
{4 1,81 1,98 1,100 1,119 1,144 1,162 1,177 1,179 1,180 1,184 1,211 1,236 1,278 1,292 1,367 1,370 1,382 1,447 1,449 1,450 1,463 1,542 1,589 1,591 1,596 1,612 1,625 1}
{4 1,59 1,85 1,160 1,292 1,417 1,523 1,556 1}
{4 1,367 1,444 1,569 1}
{4 1,53 1,89 1,160 1,175 1,212 1,215 1,237 1,259 1,292 1,296 1,465 1,500 1,514 1,533 1,556 1,576 1,647 1}
{4 1,15 1,175 1,183 1,272 1,393 1,449 1,553 1,568 1}
{4 1,170 1,184 1,199 1,237 1,280 1,292 1,395 1,463 1,542 1}
{4 1}
{4 1,120 1,175 1,245 1,417 1,503 1,556 1,613 1}
{4 1,49 1,110 1,166 1,175 1,184 1,197 1,212 1,215 1,241 1,292 1,294 1,320 1,321 1,324 1,331 1,367 1,415 1,417 1,433 1,447 1,461 1,542 1,556 1,642 1}
{4 1,160 1,417 1,556 1}
{4 1}
{4 1,80 1,85 1,88 1,160 1,163 1,166 1,175 1,187 1,197 1,212 1,215 1,288 1,292 1,296 1,321 1,339 1,364 1,408 1,415 1,520 1,522 1,524 1,567 1}
{4 1,7 1,160 1,191 1,262 1,292 1,362 1,415 1,426 1,450 1,473 1,481 1,482 1,522 1,556 1}
{4 1,41 1,89 1,90 1,94 1,104 1,216 1,292 1,294 1,302 1,317 1,322 1,354 1,376 1,453 1,454 1,549 1,605 1}
{2 1,4 1,15 1,32 1,94 1,137 1,153 1,160 1,175 1,183 1,184 1,186 1,195 1,229 1,242 1,292 1,318 1,320 1,374 1,393 1,415 1,425 1,556 1,606 1}
{4 1,498 1}
{4 1,160 1,292 1,417 1,420 1,556 1}
{212 1,292 1}
{4 1}
{4 1,175 1,226 1,267 1,286 1,393 1,413 1,415 1,441 1,446 1,447 1,448 1,471 1,501 1,542 1,556 1,569 1,586 1,605 1}
{2 1,4 1,84 1,175 1,417 1}
{4 1,48 1,72 1,125 1,128 1,129 1,292 1,393 1,473 1,522 1}
{4 1,48 1,59 1,85 1,110 1,160 1,215 1,292 1,296 1,415 1,446 1,447 1,471 1,479 1,489 1,523 1,536 1,556 1,605 1}
{4 1,127 1,184 1,185 1,229 1,274 1,283 1}
{2 1,4 1,14 1,55 1,58 1,235 1,270 1,380 1,388 1}
{4 1,159 1,165 1,168 1,175 1,184 1,215 1,242 1,278 1,283 1,292 1,300 1,304 1,305 1,320 1,367 1,415 1,447 1,480 1,506 1,522 1,528 1,542 1,566 1,614 1,615 1,632 1}
{4 1}
{4 1,292 1}
{4 1,38 1,63 1,81 1,89 1,166 1,175 1,187 1,196 1,197 1,212 1,215 1,237 1,292 1,325 1,408 1,449 1,463 1,470 1,471 1,556 1,647 1}
{4 1,292 1,363 1,449 1,522 1}
{4 1,69 1,89 1,104 1,116 1,160 1,175 1,184 1,195 1,214 1,215 1,216 1,241 1,257 1,259 1,261 1,288 1,292 1,294 1,304 1,317 1,318 1,320 1,334 1,350 1,356 1,357 1,367 1,382 1,395 1,414 1,499 1,500 1,509 1,533 1,545 1,627 1,635 1}
{4 1,27 1,175 1,292 1,522 1,556 1,605 1}
{4 1,69 1,160 1,175 1,184 1,278 1,292 1,386 1,522 1,533 1,556 1}
{4 1,48 1,59 1,72 1,85 1,110 1,153 1,155 1,175 1,193 1,198 1,292 1,296 1,352 1,402 1,403 1,479 1,502 1,556 1,561 1,575 1,612 1}
{4 1,89 1,129 1,160 1,166 1,187 1,197 1,212 1,215 1,237 1,262 1,268 1,292 1,364 1,408 1,426 1,449 1,450 1,455 1,471 1,520 1,525 1,535 1,559 1,647 1}
{4 1,175 1}
{4 1,36 1,48 1,53 1,89 1,137 1,160 1,233 1,261 1,292 1,314 1,366 1,367 1,388 1,415 1,433 1,533 1,543 1,555 1,556 1,584 1,589 1,627 1}
{4 1,5 1,7 1,89 1,128 1,129 1,160 1,164 1,225 1,230 1,268 1,292 1,314 1,320 1,339 1,367 1,381 1,404 1,405 1,422 1,423 1,426 1,465 1,482 1,488 1,506 1,533 1,578 1,648 1}
{4 1,89 1,175 1,292 1,415 1,417 1,446 1,449 1,556 1,605 1}
{4 1,160 1,175 1,292 1,556 1}
{4 1,106 1,148 1,153 1,166 1,197 1,212 1,292 1,395 1,494 1,647 1}
{4 1,48 1,95 1,112 1,123 1,126 1,163 1,175 1,219 1,241 1,296 1,328 1,367 1,391 1,489 1,518 1,519 1,591 1}
{4 1,292 1}
{4 1,7 1,9 1,51 1,58 1,89 1,126 1,160 1,167 1,175 1,191 1,262 1,292 1,309 1,314 1,328 1,412 1,426 1,428 1,447 1,465 1,480 1,481 1,482 1,496 1,525 1,556 1,578 1,627 1}
{4 1,23 1,58 1,314 1}
{4 1,59 1,89 1,94 1,104 1,137 1,148 1,156 1,165 1,168 1,199 1,215 1,229 1,257 1,287 1,292 1,305 1,310 1,357 1,359 1,360 1,361 1,367 1,393 1,406 1,407 1,493 1,506 1,523 1,533 1,640 1}
{4 1,144 1,199 1,360 1,415 1,417 1,556 1,591 1}
{4 1,36 1,89 1,137 1,146 1,160 1,166 1,175 1,195 1,212 1,237 1,241 1,278 1,292 1,294 1,320 1,361 1,408 1,449 1,463 1,501 1,533 1,632 1,646 1}
{4 1,7 1,10 1,66 1,67 1,89 1,129 1,168 1,175 1,197 1,199 1,200 1,205 1,215 1,220 1,225 1,229 1,252 1,268 1,271 1,292 1,294 1,307 1,315 1,332 1,350 1,395 1,415 1,426 1,427 1,428 1,447 1,449 1,450 1,465 1,469 1,481 1,482 1,506 1,522 1,542 1,556 1,557 1,624 1,648 1}
{4 1,53 1,137 1,160 1,166 1,170 1,175 1,184 1,187 1,197 1,212 1,215 1,237 1,241 1,274 1,288 1,292 1,304 1,320 1,350 1,367 1,415 1,437 1,449 1,450 1,463 1,520 1,533 1,542 1,556 1,605 1,614 1,647 1}
{4 1,175 1,308 1,320 1,454 1,549 1,624 1}
{4 1,417 1,556 1}
{4 1,30 1,59 1,99 1,123 1,137 1,154 1,171 1,175 1,184 1,188 1,241 1,278 1,292 1,304 1,310 1,320 1,324 1,330 1,367 1,433 1,447 1,448 1,461 1,532 1,549 1,556 1,572 1,575 1,589 1,596 1,624 1,648 1}
{4 1,85 1,102 1}
{4 1,48 1,175 1,292 1,580 1,602 1}
{4 1}
{4 1,85 1,395 1}
{4 1,48 1,59 1,85 1,110 1,153 1,160 1,292 1,605 1}
{4 1,101 1,160 1,292 1}
{4 1,48 1,85 1,292 1,296 1}
{4 1,294 1,344 1}
{4 1,127 1,175 1,292 1,382 1,607 1}
{4 1}
{4 1,89 1,160 1,175 1,195 1,215 1,257 1,292 1,314 1,367 1,432 1,450 1,556 1}
{4 1,166 1,197 1,215 1,292 1,393 1,415 1,416 1}
{4 1,292 1}
{4 1,128 1,175 1,292 1,415 1,556 1}
{4 1,22 1,70 1,89 1,101 1,137 1,166 1,175 1,180 1,186 1,197 1,205 1,215 1,242 1,248 1,277 1,278 1,292 1,294 1,320 1,321 1,367 1,376 1,388 1,415 1,447 1,448 1,450 1,501 1,512 1,542 1,556 1,582 1,585 1,596 1,605 1,624 1,625 1,630 1,631 1}
{186 1,278 1}
{4 1,107 1,137 1,153 1,166 1,175 1,184 1,197 1,212 1,215 1,278 1,292 1,304 1,320 1,350 1,359 1,378 1,415 1,417 1,440 1,447 1,448 1,450 1,467 1,471 1,506 1,556 1,559 1}
{2 1,4 1,32 1,83 1,89 1,107 1,140 1,166 1,170 1,175 1,184 1,197 1,241 1,278 1,292 1,320 1,356 1,367 1,408 1,415 1,447 1,450 1,471 1,508 1,515 1,542 1,556 1,566 1,614 1,624 1,642 1}
{4 1,30 1,175 1,177 1,188 1,263 1,292 1,320 1,367 1,370 1,374 1,415 1,448 1,473 1,523 1}
{4 1,82 1,137 1,168 1,175 1,184 1,199 1,216 1,224 1,277 1,278 1,283 1,292 1,305 1,320 1,365 1,415 1,417 1,447 1,448 1,542 1,543 1,566 1,579 1,620 1,624 1,625 1,642 1}
{4 1,228 1,238 1,240 1,292 1,516 1,640 1}
{4 1,270 1,292 1,352 1,446 1,463 1,522 1,556 1,575 1}
{4 1,392 1,417 1,556 1}
{4 1,294 1}
{4 1,89 1,148 1,160 1,165 1,166 1,170 1,175 1,181 1,187 1,197 1,199 1,212 1,215 1,237 1,242 1,251 1,252 1,292 1,294 1,320 1,323 1,361 1,413 1,415 1,440 1,441 1,447 1,448 1,449 1,450 1,522 1,525 1,542 1,556 1,564 1,605 1,624 1,643 1,647 1}
{4 1,81 1,212 1,292 1}
{4 1,82 1,141 1,142 1}
{4 1,18 1,115 1,138 1,161 1,184 1,227 1,278 1,327 1,452 1,516 1,542 1}
{4 1}
{4 1,20 1,42 1,82 1,89 1,91 1,116 1,117 1,120 1,121 1,127 1,135 1,136 1,137 1,143 1,144 1,145 1,148 1,155 1,160 1,165 1,175 1,184 1,195 1,216 1,223 1,234 1,241 1,242 1,252 1,283 1,291 1,292 1,294 1,300 1,304 1,314 1,315 1,320 1,331 1,349 1,350 1,353 1,354 1,360 1,367 1,370 1,374 1,375 1,377 1,390 1,395 1,405 1,413 1,415 1,446 1,447 1,448 1,459 1,463 1,469 1,475 1,486 1,500 1,505 1,513 1,523 1,542 1,544 1,545 1,562 1,566 1,575 1,589 1,591 1,601 1,611 1,624 1,648 1}
{2 1,4 1,31 1,97 1,116 1,123 1,175 1,184 1,252 1,255 1,276 1,278 1,317 1,321 1,360 1,367 1,382 1,415 1,441 1,448 1,486 1,487 1,499 1,501 1,526 1,566 1,586 1,614 1,622 1}
{4 1,89 1,99 1,175 1,292 1,367 1,399 1,556 1,577 1}
{2 1,4 1,15 1,47 1,75 1,82 1,88 1,166 1,175 1,183 1,184 1,197 1,215 1,246 1,267 1,278 1,288 1,292 1,310 1,312 1,324 1,325 1,349 1,358 1,360 1,361 1,367 1,382 1,393 1,399 1,413 1,415 1,445 1,447 1,471 1,486 1,499 1,507 1,530 1,531 1,532 1,538 1,556 1,572 1,591 1,614 1,632 1,637 1,642 1}
{4 1,85 1,155 1,212 1}
{4 1,160 1,166 1,169 1,187 1,197 1,215 1,292 1,408 1,415 1,417 1,449 1,520 1,556 1}
{4 1,417 1,556 1}
{4 1,175 1,184 1,204 1,278 1,292 1,294 1,367 1,382 1,415 1,448 1,525 1,639 1}
{4 1,39 1,48 1,59 1,85 1,110 1,153 1,160 1,175 1,198 1,212 1,292 1,294 1,349 1,446 1,489 1,523 1,533 1,556 1,602 1,605 1,612 1}
{4 1,89 1,123 1,158 1,175 1,187 1,200 1,215 1,220 1,292 1,307 1,367 1,398 1,415 1,449 1,470 1,475 1,514 1,522 1}
{2 1,4 1,59 1,82 1,91 1,97 1,104 1,137 1,148 1,156 1,160 1,166 1,175 1,183 1,186 1,197 1,215 1,228 1,237 1,241 1,242 1,292 1,294 1,300 1,320 1,322 1,355 1,359 1,361 1,406 1,407 1,413 1,415 1,447 1,448 1,471 1,494 1,539 1,542 1,566 1,579 1,624 1,632 1,640 1,647 1,648 1}
{4 1,48 1,153 1,165 1,175 1,184 1,292 1}
{4 1,79 1,89 1,107 1,129 1,175 1,220 1,292 1,307 1,343 1,367 1,388 1,404 1,488 1,548 1,551 1,556 1,648 1}
{4 1,144 1,175 1,242 1,292 1,501 1}
{4 1,89 1,110 1,132 1,134 1,292 1,367 1,417 1,476 1,486 1,556 1}
{4 1,166 1,168 1,215 1,292 1,320 1,323 1,325 1,408 1,413 1,415 1,446 1,450 1,556 1,605 1}
{4 1,36 1,143 1,147 1,175 1,184 1,252 1,278 1,292 1,361 1,409 1,441 1,474 1,499 1,501 1,610 1,639 1}
{4 1,89 1,141 1,175 1,215 1,291 1,292 1,417 1,431 1,556 1,605 1}
{4 1,101 1,144 1,184 1,276 1,278 1,591 1}
{4 1,53 1,160 1,175 1,504 1,533 1}
{4 1,38 1,80 1,104 1,123 1,148 1,166 1,175 1,197 1,215 1,267 1,292 1,320 1,321 1,367 1,393 1,441 1,447 1,493 1,504 1,530 1,566 1,586 1,627 1}
{4 1}
{4 1,37 1,48 1,59 1,92 1,106 1,165 1,184 1,242 1,292 1,320 1,354 1,395 1,575 1}
{4 1,99 1,175 1,184 1,278 1,292 1,301 1,446 1,556 1,605 1}
{4 1,48 1,59 1,85 1,89 1,110 1,153 1,160 1,175 1,212 1,284 1,292 1,296 1,370 1,415 1,417 1,479 1,533 1,556 1,605 1}
{4 1,27 1,89 1,107 1,125 1,160 1,166 1,175 1,187 1,210 1,221 1,292 1,362 1,363 1,417 1,435 1,449 1,450 1,475 1,498 1,515 1,522 1,556 1}
{4 1,82 1,89 1,101 1,137 1,165 1,175 1,184 1,242 1,278 1,279 1,292 1,304 1,320 1,350 1,359 1,360 1,374 1,393 1,441 1,513 1,542 1,546 1,556 1,562 1,587 1,591 1,624 1}
{4 1,160 1,292 1,417 1,523 1,533 1,556 1,583 1,605 1}
{4 1,417 1,556 1}
{4 1,22 1,48 1,59 1,85 1,92 1,94 1,102 1,104 1,110 1,115 1,121 1,123 1,125 1,137 1,145 1,153 1,155 1,165 1,175 1,180 1,184 1,198 1,206 1,212 1,269 1,280 1,284 1,292 1,294 1,340 1,342 1,347 1,365 1,367 1,370 1,372 1,374 1,382 1,393 1,395 1,399 1,402 1,437 1,462 1,463 1,501 1,502 1,516 1,523 1,533 1,566 1,567 1,575 1,581 1,583 1,586 1,591 1,596 1,603 1,612 1}
{4 1,59 1,89 1,137 1,148 1,156 1,166 1,175 1,183 1,215 1,241 1,242 1,267 1,287 1,294 1,304 1,305 1,360 1,361 1,393 1,395 1,397 1,406 1,407 1,415 1,447 1,448 1,471 1,523 1,556 1,584 1,614 1,619 1,621 1}
{4 1,15 1,19 1,82 1,99 1,101 1,137 1,165 1,166 1,168 1,170 1,175 1,183 1,184 1,215 1,229 1,242 1,260 1,278 1,283 1,292 1,300 1,304 1,318 1,367 1,382 1,393 1,442 1,448 1,449 1,486 1,495 1,506 1,533 1,569 1,591 1,596 1,609 1,614 1,636 1}
{4 1,59 1,69 1,137 1,160 1,166 1,184 1,257 1,292 1,332 1,367 1,449 1,467 1,556 1,596 1,614 1}
{4 1,292 1}
{4 1,48 1,59 1,72 1,110 1,113 1,175 1,184 1,278 1,290 1,449 1,516 1,556 1,583 1,589 1}
{4 1,54 1,89 1,99 1,124 1,160 1,166 1,212 1,215 1,448 1,450 1,455 1,471 1,568 1}
{4 1,30 1,56 1,89 1,114 1,123 1,134 1,158 1,175 1,261 1,292 1,321 1,331 1,366 1,367 1,396 1,461 1,526 1,532 1,572 1}
{4 1,66 1,69 1,79 1,149 1,150 1,160 1,164 1,166 1,175 1,197 1,215 1,218 1,271 1,278 1,292 1,314 1,415 1,424 1,450 1,470 1,522 1,527 1,556 1}
{4 1,38 1,82 1,89 1,95 1,107 1,175 1,269 1,294 1,320 1,350 1,367 1,378 1,446 1,447 1,449 1,450 1,469 1,523 1,542 1,566 1,595 1,624 1,625 1}
{4 1,111 1,166 1,168 1,175 1,184 1,186 1,197 1,215 1,237 1,241 1,278 1,312 1,325 1,393 1,402 1,530 1,542 1,596 1,612 1,614 1,642 1,647 1}
{4 1,47 1,69 1,105 1,110 1,126 1,137 1,140 1,153 1,160 1,166 1,175 1,184 1,215 1,223 1,229 1,272 1,278 1,292 1,294 1,318 1,320 1,344 1,364 1,365 1,367 1,378 1,391 1,393 1,395 1,396 1,397 1,415 1,417 1,430 1,438 1,447 1,454 1,486 1,503 1,506 1,535 1,542 1,556 1,605 1,624 1}
{4 1,59 1,85 1,137 1,153 1,160 1,166 1,175 1,184 1,197 1,215 1,229 1,278 1,292 1,294 1,337 1,353 1,365 1,367 1,374 1,377 1,382 1,390 1,415 1,449 1,450 1,463 1,537 1,556 1,596 1,605 1}
{4 1}
{4 1,242 1,417 1,556 1}
{4 1}
{4 1,44 1,55 1,57 1,89 1,90 1,108 1,128 1,141 1,174 1,203 1,217 1,292 1,309 1,339 1,460 1,522 1,638 1,641 1,648 1}
{4 1,16 1,175 1,226 1,292 1,556 1,607 1}
{4 1,537 1}
{4 1,133 1,268 1,292 1,367 1,388 1,415 1,481 1,522 1,551 1,597 1}
{4 1,89 1,292 1,449 1}
{4 1,175 1}
{4 1,42 1,292 1,321 1,415 1,526 1,622 1,646 1}
{4 1,56 1,133 1,292 1,321 1,367 1,415 1,417 1,542 1,556 1}
{4 1,175 1,292 1,448 1}
{4 1,59 1}
{4 1,175 1,318 1,325 1,599 1}
{4 1,475 1}
{4 1,64 1,81 1,166 1,215 1,252 1,292 1,318 1,367 1,408 1,415 1,418 1,449 1,450 1,526 1}
{2 1,4 1,5 1,7 1,32 1,46 1,89 1,160 1,166 1,168 1,170 1,175 1,184 1,187 1,195 1,197 1,215 1,267 1,268 1,292 1,295 1,304 1,320 1,332 1,382 1,404 1,415 1,426 1,432 1,447 1,449 1,450 1,465 1,471 1,482 1,488 1,522 1,525 1,551 1,556 1,563 1,642 1,647 1,648 1}
{4 1,250 1,499 1}
{2 1,4 1,32 1,52 1,59 1,85 1,116 1,160 1,166 1,170 1,175 1,187 1,197 1,215 1,237 1,292 1,393 1,415 1,447 1,449 1,450 1,469 1,471 1,542 1,556 1,567 1,574 1,589 1,605 1,624 1,645 1,647 1}
{4 1,99 1,182 1,292 1,294 1,315 1,343 1,397 1,415 1,450 1,469 1}
{4 1,69 1,175 1,237 1,292 1,463 1,522 1,634 1}
{4 1,69 1,88 1,160 1,166 1,175 1,187 1,197 1,215 1,237 1,292 1,415 1,522 1,556 1,647 1}
{4 1,148 1,153 1,160 1,175 1,187 1,215 1,257 1,292 1,333 1,414 1,458 1,498 1,547 1,556 1,636 1}
{4 1,77 1,80 1,91 1,103 1,123 1,160 1,165 1,166 1,175 1,184 1,187 1,192 1,197 1,212 1,214 1,215 1,237 1,238 1,241 1,278 1,292 1,308 1,364 1,367 1,382 1,393 1,395 1,415 1,419 1,447 1,449 1,450 1,520 1,522 1,525 1,535 1,542 1,545 1,556 1,647 1}
{4 1,43 1,89 1,94 1,104 1,137 1,165 1,175 1,184 1,197 1,241 1,242 1,278 1,279 1,283 1,292 1,299 1,320 1,350 1,359 1,361 1,374 1,393 1,406 1,407 1,415 1,423 1,432 1,447 1,550 1,558 1,562 1,587 1,621 1,627 1}
{4 1,32 1,45 1,47 1,166 1,175 1,184 1,197 1,215 1,288 1,292 1,344 1,408 1,417 1,504 1,511 1,556 1,605 1,617 1}
{4 1,42 1,59 1,98 1,110 1,121 1,159 1,160 1,162 1,166 1,175 1,184 1,187 1,197 1,237 1,242 1,252 1,278 1,292 1,367 1,370 1,395 1,408 1,520 1,523 1,556 1,614 1,647 1}
{4 1,48 1,59 1,85 1,110 1,153 1,160 1,165 1,175 1,184 1,206 1,278 1,292 1,341 1,410 1,463 1,516 1,580 1}
{4 1,16 1,48 1,59 1,85 1,175 1,182 1,292 1,523 1,607 1}
{4 1,167 1,184 1,278 1,292 1,305 1,318 1,325 1,367 1,405 1,477 1,566 1,586 1,608 1,622 1}
{4 1,175 1,292 1,345 1,374 1}
{4 1,41 1,94 1,169 1,175 1,292 1,294 1,342 1,415 1,447 1,449 1,450 1,454 1,486 1,527 1}
{4 1,39 1,479 1,523 1,602 1}
{4 1,59 1,85 1,110 1,148 1,153 1,163 1,166 1,175 1,184 1,187 1,197 1,212 1,216 1,237 1,241 1,278 1,292 1,296 1,320 1,332 1,393 1,395 1,471 1,489 1,602 1,608 1,612 1,639 1,647 1}
{4 1,88 1,382 1}
{4 1,48 1,59 1,85 1,89 1,99 1,137 1,155 1,158 1,160 1,175 1,184 1,186 1,197 1,202 1,212 1,215 1,216 1,231 1,241 1,278 1,279 1,289 1,292 1,294 1,314 1,318 1,350 1,353 1,367 1,391 1,395 1,415 1,446 1,447 1,450 1,463 1,469 1,537 1,542 1,548 1,556 1,566 1,591 1,593 1,596 1,624 1}
{3 1,4 1,23 1,38 1,99 1,107 1,160 1,175 1,222 1,292 1,330 1,415 1,449 1,450 1,508 1,556 1,612 1,642 1}
{4 1,175 1,292 1}
{4 1,62 1,85 1,89 1,127 1,128 1,129 1,150 1,160 1,166 1,170 1,175 1,257 1,271 1,292 1,314 1,336 1,339 1,385 1,393 1,394 1,417 1,446 1,457 1,473 1,475 1,522 1,525 1,556 1,605 1,648 1}
{4 1,48 1,59 1,85 1,175 1,395 1,415 1,451 1,482 1,567 1}
{4 1,32 1,160 1,166 1,175 1,215 1,292 1,359 1,363 1,415 1,417 1,447 1,449 1,556 1,642 1,645 1}
{4 1,556 1}
{175 1,292 1}
{4 1}
{4 1,85 1,241 1,292 1,395 1}
{4 1,85 1,94 1,123 1,292 1,299 1,367 1,395 1,526 1,621 1}
{4 1,17 1,292 1,449 1,601 1}
{4 1,59 1,69 1,160 1,166 1,170 1,175 1,292 1,393 1,447 1,467 1,520 1,522 1,556 1}
{4 1}
{4 1,5 1,6 1,21 1,89 1,128 1,160 1,175 1,184 1,187 1,288 1,292 1,294 1,315 1,367 1,394 1,415 1,449 1,450 1,465 1,525 1,533 1,537 1,551 1,556 1,605 1,609 1}
{4 1,69 1,85 1,89 1,95 1,110 1,153 1,166 1,175 1,292 1,410 1,415 1,450 1,460 1,463 1,481 1,522 1,524 1,556 1}
{2 1,4 1,84 1,89 1,116 1,121 1,123 1,128 1,129 1,137 1,144 1,153 1,175 1,189 1,225 1,229 1,230 1,233 1,254 1,256 1,266 1,270 1,292 1,307 1,367 1,374 1,393 1,426 1,481 1,491 1,496 1,500 1,533 1,547 1,617 1,641 1,648 1}
{2 1,4 1,12 1,14 1,32 1,50 1,60 1,84 1,89 1,94 1,151 1,153 1,166 1,175 1,187 1,203 1,215 1,257 1,272 1,287 1,292 1,329 1,353 1,380 1,393 1,397 1,415 1,417 1,446 1,448 1,450 1,456 1,466 1,511 1,520 1,525 1,533 1,544 1,545 1,556 1,571 1,574 1,576 1,605 1,617 1,645 1,648 1}
{4 1,88 1,160 1,166 1,175 1,184 1,187 1,215 1,221 1,237 1,257 1,278 1,288 1,289 1,292 1,318 1,333 1,367 1,415 1,510 1,520 1,598 1,606 1,627 1,647 1}
{4 1,82 1,116 1,175 1,252 1,254 1,255 1,441 1,447 1,450 1,500 1,501 1,542 1,554 1,586 1,622 1,632 1}
{4 1}
{4 1,48 1,59 1,66 1,71 1,80 1,88 1,89 1,137 1,155 1,166 1,175 1,184 1,197 1,212 1,215 1,237 1,278 1,288 1,292 1,301 1,313 1,320 1,325 1,364 1,367 1,408 1,415 1,447 1,448 1,449 1,450 1,483 1,499 1,520 1,628 1,635 1,647 1}
{4 1,5 1,9 1,13 1,31 1,34 1,48 1,66 1,104 1,121 1,126 1,135 1,141 1,157 1,175 1,181 1,205 1,216 1,242 1,245 1,248 1,278 1,294 1,300 1,303 1,304 1,315 1,351 1,357 1,367 1,369 1,370 1,374 1,398 1,404 1,482 1,488 1,522 1,538 1,551 1,575 1,613 1,642 1,644 1}
{4 1,53 1,69 1,74 1,128 1,199 1,218 1,257 1,292 1,314 1,339 1,367 1,388 1,393 1,411 1,415 1,422 1,425 1,472 1,473 1,522 1,533 1,543 1,556 1,571 1,627 1,648 1}
{4 1,175 1,292 1}
{4 1,82 1,393 1,415 1,448 1,542 1}
{4 1,89 1,103 1,104 1,137 1,152 1,153 1,160 1,175 1,215 1,257 1,288 1,292 1,294 1,314 1,332 1,340 1,367 1,374 1,399 1,414 1,415 1,425 1,450 1,498 1,548 1,556 1,575 1,595 1}
{4 1,38 1,89 1,107 1,108 1,135 1,160 1,175 1,187 1,203 1,204 1,215 1,216 1,257 1,258 1,259 1,261 1,279 1,292 1,317 1,318 1,333 1,334 1,362 1,367 1,414 1,415 1,420 1,425 1,457 1,458 1,496 1,498 1,522 1,525 1,544 1,546 1,555 1,583 1,598 1,627 1}
{4 1,89 1,135 1,175 1,292 1,370 1,463 1,556 1}
{4 1,48 1,59 1,68 1,69 1,85 1,115 1,175 1,292 1,301 1,447 1}
{4 1,173 1,175 1,212 1,216 1,242 1,292 1,323 1,367 1,413 1,415 1,556 1}
